Pt15, -67.16677723 <s> Ag </s>          
   1.00000000000000     
    19.2924927101102099    0.0000000000000000    0.0000000000000000
     0.0000000000000000   19.2924927101102099    0.0000000000000000
     0.0000000000000000    0.0000000000000000   19.2924927101102099
   Ag
    15
Direct
  0.6925580469353116  0.4877624277162709  0.5822520812681964
  0.6127276986458362  0.5318324609826979  0.6951444411694788
  0.5825123357346260  0.5889498777073915  0.5654572840328714
  0.4740520395104811  0.5527259118406821  0.6556386502876697
  0.6274860137609104  0.5058302567656573  0.4549836230734174
  0.6433855483030078  0.6479178887142095  0.4509745360847560
  0.5491194748549415  0.4442637437594850  0.5983871671503581
  0.6339901309339733  0.3760464398312070  0.5086682903296124
  0.4132306531889205  0.6083447423187038  0.5397282122310978
  0.5138719662152920  0.5864682151765818  0.4268000137690184
  0.4048414765147523  0.4663276945769934  0.5658015095081209
  0.5019654291994708  0.4348781565945269  0.4555082122744644
  0.3933248566368361  0.6594695558550878  0.4072281050024710
  0.3867719234726756  0.5191265278815315  0.4265833035372663
  0.3622995025539342  0.3852596639266628  0.4595085919998512
 
  0.00000000E+00  0.00000000E+00  0.00000000E+00
  0.00000000E+00  0.00000000E+00  0.00000000E+00
  0.00000000E+00  0.00000000E+00  0.00000000E+00
  0.00000000E+00  0.00000000E+00  0.00000000E+00
  0.00000000E+00  0.00000000E+00  0.00000000E+00
  0.00000000E+00  0.00000000E+00  0.00000000E+00
  0.00000000E+00  0.00000000E+00  0.00000000E+00
  0.00000000E+00  0.00000000E+00  0.00000000E+00
  0.00000000E+00  0.00000000E+00  0.00000000E+00
  0.00000000E+00  0.00000000E+00  0.00000000E+00
  0.00000000E+00  0.00000000E+00  0.00000000E+00
  0.00000000E+00  0.00000000E+00  0.00000000E+00
  0.00000000E+00  0.00000000E+00  0.00000000E+00
  0.00000000E+00  0.00000000E+00  0.00000000E+00
  0.00000000E+00  0.00000000E+00  0.00000000E+00
