Al54, -172.65832173 <s> Ag </s>         
   1.00000000000000     
    23.5227020695558409    0.0000000000000000    0.0000000000000000
     0.0000000000000000   23.5227020695558409    0.0000000000000000
     0.0000000000000000    0.0000000000000000   23.5227020695558409
   Ag
    54
Direct
  0.6869932869195405  0.5217334817889542  0.3584428516638440
  0.6281492850925700  0.6286781782533014  0.3669692937434718
  0.6103015771098214  0.6852291458696300  0.4678476532502137
  0.6701706229336597  0.5776282954972525  0.4623796232153236
  0.6833763232133140  0.5262221697571372  0.5711166841604414
  0.6889909617957335  0.3923776946587904  0.5680956687467682
  0.6878488346260409  0.6481631045155188  0.5535478262413279
  0.6359265801751672  0.4114877699783691  0.3617608456839824
  0.6662602077225324  0.4588594767493556  0.4692531085709242
  0.6639575326350657  0.4594930027205027  0.6667023762739548
  0.5851130548508870  0.5596341266030479  0.2837276962264768
  0.6068316143033682  0.6715275476031253  0.6332116965186588
  0.5189833997149738  0.6096285513423769  0.4375006776732761
  0.6252721093913947  0.7573343074583985  0.5564230161064979
  0.5014833407627192  0.6308385774164480  0.6526630207822721
  0.5986716383060317  0.5569327051842383  0.6668432330610589
  0.5801218316746013  0.5862549054446197  0.5475620994554622
  0.5641701196750220  0.3950710929904634  0.4577967376384228
  0.5782863919345494  0.5106118465704961  0.3970536230976427
  0.5887365909681601  0.4479271682896361  0.5685779582003350
  0.6173442544939943  0.3516031956039384  0.6593600899347057
  0.5804889173578492  0.3239027262611170  0.5534686026062990
  0.5416736886667397  0.4508441030721526  0.2951842155119729
  0.5168740127108915  0.7041177729174612  0.5468287422747774
  0.5235856329790394  0.6594157268079426  0.3239724086222869
  0.5482026022327015  0.4407956830410827  0.6966727074761173
  0.5042046779677517  0.7248799474622910  0.4255549694764603
  0.5006934717721560  0.5119482378491260  0.6121386147052483
  0.4169383553679994  0.6469574771541552  0.3745958550820297
  0.4753000605616418  0.4007817648586419  0.5438536641169298
  0.4570720205763660  0.5990123657015269  0.5421483494257944
  0.4860186399311984  0.5350213278274428  0.7278922440818425
  0.4772383578932702  0.5497200589884330  0.3354602666476165
  0.5508247475402380  0.2755762278094648  0.4496894807916955
  0.4984447392045002  0.3448556863029555  0.6473815962717118
  0.5080742163329448  0.5014431408497046  0.4921482360505864
  0.4083899368404626  0.6873361179092198  0.6056221732065408
  0.5365559629425829  0.3455486160152862  0.3526275888430210
  0.4702687715573917  0.4435220864086595  0.3902688924791340
  0.4224412155513326  0.4447841208531008  0.6711462239717203
  0.4063424768960316  0.6895994872531946  0.4855119835516240
  0.3195584211150012  0.6213325795185207  0.4384172688354620
  0.4677325873466931  0.2822817676386124  0.5427142653610864
  0.3869518183912715  0.3504546518332432  0.6089101748556558
  0.4070439074356677  0.5409550342010152  0.4361464390094286
  0.3965580566540531  0.4921188416285243  0.5529954628008905
  0.4496103666145797  0.3328205749956464  0.4324110872022710
  0.3981691578334233  0.5703453949237296  0.6517902542244386
  0.3753518616561005  0.4224714847318303  0.4570310970149352
  0.3067070636121234  0.4999309110749916  0.6253176982917886
  0.3359228813708958  0.6040665061814162  0.5548525430796073
  0.3564255437975906  0.3132222558189383  0.5011035147787964
  0.2983984329945976  0.5127461790989903  0.4889544035907659
  0.3024123170478668  0.4084542871896947  0.5503769924858045
 
  0.00000000E+00  0.00000000E+00  0.00000000E+00
  0.00000000E+00  0.00000000E+00  0.00000000E+00
  0.00000000E+00  0.00000000E+00  0.00000000E+00
  0.00000000E+00  0.00000000E+00  0.00000000E+00
  0.00000000E+00  0.00000000E+00  0.00000000E+00
  0.00000000E+00  0.00000000E+00  0.00000000E+00
  0.00000000E+00  0.00000000E+00  0.00000000E+00
  0.00000000E+00  0.00000000E+00  0.00000000E+00
  0.00000000E+00  0.00000000E+00  0.00000000E+00
  0.00000000E+00  0.00000000E+00  0.00000000E+00
  0.00000000E+00  0.00000000E+00  0.00000000E+00
  0.00000000E+00  0.00000000E+00  0.00000000E+00
  0.00000000E+00  0.00000000E+00  0.00000000E+00
  0.00000000E+00  0.00000000E+00  0.00000000E+00
  0.00000000E+00  0.00000000E+00  0.00000000E+00
  0.00000000E+00  0.00000000E+00  0.00000000E+00
  0.00000000E+00  0.00000000E+00  0.00000000E+00
  0.00000000E+00  0.00000000E+00  0.00000000E+00
  0.00000000E+00  0.00000000E+00  0.00000000E+00
  0.00000000E+00  0.00000000E+00  0.00000000E+00
  0.00000000E+00  0.00000000E+00  0.00000000E+00
  0.00000000E+00  0.00000000E+00  0.00000000E+00
  0.00000000E+00  0.00000000E+00  0.00000000E+00
  0.00000000E+00  0.00000000E+00  0.00000000E+00
  0.00000000E+00  0.00000000E+00  0.00000000E+00
  0.00000000E+00  0.00000000E+00  0.00000000E+00
  0.00000000E+00  0.00000000E+00  0.00000000E+00
  0.00000000E+00  0.00000000E+00  0.00000000E+00
  0.00000000E+00  0.00000000E+00  0.00000000E+00
  0.00000000E+00  0.00000000E+00  0.00000000E+00
  0.00000000E+00  0.00000000E+00  0.00000000E+00
  0.00000000E+00  0.00000000E+00  0.00000000E+00
  0.00000000E+00  0.00000000E+00  0.00000000E+00
  0.00000000E+00  0.00000000E+00  0.00000000E+00
  0.00000000E+00  0.00000000E+00  0.00000000E+00
  0.00000000E+00  0.00000000E+00  0.00000000E+00
  0.00000000E+00  0.00000000E+00  0.00000000E+00
  0.00000000E+00  0.00000000E+00  0.00000000E+00
  0.00000000E+00  0.00000000E+00  0.00000000E+00
  0.00000000E+00  0.00000000E+00  0.00000000E+00
  0.00000000E+00  0.00000000E+00  0.00000000E+00
  0.00000000E+00  0.00000000E+00  0.00000000E+00
  0.00000000E+00  0.00000000E+00  0.00000000E+00
  0.00000000E+00  0.00000000E+00  0.00000000E+00
  0.00000000E+00  0.00000000E+00  0.00000000E+00
  0.00000000E+00  0.00000000E+00  0.00000000E+00
  0.00000000E+00  0.00000000E+00  0.00000000E+00
  0.00000000E+00  0.00000000E+00  0.00000000E+00
  0.00000000E+00  0.00000000E+00  0.00000000E+00
  0.00000000E+00  0.00000000E+00  0.00000000E+00
  0.00000000E+00  0.00000000E+00  0.00000000E+00
  0.00000000E+00  0.00000000E+00  0.00000000E+00
  0.00000000E+00  0.00000000E+00  0.00000000E+00
  0.00000000E+00  0.00000000E+00  0.00000000E+00
