Al37, -115.80030909 <s> Ag </s>
  1.00000000000000
    22.07593651472132     0.00000000000000     0.00000000000000
     0.00000000000000    22.07593651472132     0.00000000000000
     0.00000000000000     0.00000000000000    22.07593651472132
  Ag    
  37    
Direct
     0.45821639580500      0.26243442908787      0.39831443706623   
     0.44205342164121      0.39121098382904      0.37928570827525   
     0.41409197901710      0.50552387201197      0.34952523974524   
     0.55967515075240      0.34750547927571      0.41220352814944   
     0.39193862956286      0.33609404655394      0.47635690405423   
     0.37740508896934      0.47693049909114      0.46933644356786   
     0.53904363831521      0.46930981176523      0.38144143673589   
     0.50415810455483      0.29330609620462      0.51567781561970   
     0.48273514283055      0.68274663364152      0.40199720134069   
     0.30803138113433      0.50880177358734      0.58699361545733   
     0.38240050528113      0.60660289692549      0.41710374035929   
     0.65690212326950      0.42788497997433      0.40791014648996   
     0.50827421131278      0.57918929183960      0.33655317953342   
     0.49672715084671      0.42459842510796      0.49342266572003   
     0.35074443271628      0.39577983277125      0.56953442217946   
     0.63529543380409      0.55026212509476      0.36744853715726   
     0.60185722479564      0.35948845975657      0.53681623935852   
     0.48526825072951      0.55408726264914      0.47119879307104   
     0.69907031381724      0.43454281873049      0.52479407985491   
     0.60008222752587      0.51216745272690      0.48761343761710   
     0.43449908155931      0.48476626820234      0.58073375137296   
     0.59089492459724      0.66842501294799      0.32751837243476   
     0.48648694360841      0.37517976105503      0.61054941579956   
     0.38467892597167      0.59976863076424      0.54260147041232   
     0.58898108155639      0.63855589950706      0.44720128571302   
     0.57833545440990      0.46167658697546      0.60148713222521   
     0.70091905582146      0.59095361344058      0.47655847757342   
     0.49235219616627      0.67496186460336      0.52608229919213   
     0.50728254524878      0.57759348123149      0.60371520731856   
     0.68213311914297      0.53473411013994      0.58838898453239   
     0.39109394062603      0.55946697862361      0.66888369142423   
     0.49494955623463      0.47894667891709      0.69184643511069   
     0.61680261311977      0.63734163098603      0.56495523454630   
     0.42908853677877      0.67518154066643      0.63749635732839   
     0.60335113510093      0.55985516535837      0.68180374834449   
     0.49127432627920      0.60356331229554      0.73512556196450   
     0.55434351265475      0.68441718644858      0.65738963524670   
