Cu25, -69.40410015 <s> Ag </s>          
   1.00000000000000     
    19.3266371149040310    0.0000000000000000    0.0000000000000000
     0.0000000000000000   19.3266371149040310    0.0000000000000000
     0.0000000000000000    0.0000000000000000   19.3266371149040310
   Ag
    25
Direct
  0.4586366165368667  0.5498328441969562  0.3801450687055535
  0.7442131119383913  0.5189458550541312  0.3824682134354108
  0.6825380073252124  0.6476303033630227  0.3984410747981116
  0.5385082333581257  0.6747600174534097  0.4134545596400718
  0.6073549947051741  0.5277144930714004  0.4215399464884622
  0.4003551392901523  0.6619426152761556  0.4626690394177453
  0.4984683527203762  0.4338790685009425  0.4733348040321764
  0.6124543641552833  0.4694520753856016  0.5568752916558450
  0.3741638076395554  0.5147029307389845  0.4982330808341229
  0.5059931022398785  0.5741188601414660  0.5111436034916871
  0.7233198760157094  0.5604369296823534  0.5185038635364031
  0.6285462500690440  0.6721633963245313  0.5284811743276949
  0.5380748116906641  0.3524087785647413  0.5923044177029076
  0.4926877148361572  0.7117157030847417  0.5629487683996752
  0.6009592981307220  0.7272121694103323  0.6644023679100715
  0.4624052498342494  0.4722686951659371  0.6111829084551149
  0.5627178730558158  0.5926738214001743  0.6385520672113926
  0.7176957794495319  0.6444810032160859  0.6372705299932638
  0.6742898383085052  0.3699724011981118  0.6509809731858440
  0.7087847580981815  0.5066137596686897  0.6596284982493251
  0.4016014342501216  0.6058110828171164  0.6119709574415577
  0.5767239418412872  0.4601817128812046  0.7036345006413282
  0.6394604841427133  0.5931836055709927  0.7558831585671897
  0.4667045104523788  0.6888007403351732  0.7093478266798537
  0.4629273558819400  0.5486820434637738  0.7361882111652286
 
  0.00000000E+00  0.00000000E+00  0.00000000E+00
  0.00000000E+00  0.00000000E+00  0.00000000E+00
  0.00000000E+00  0.00000000E+00  0.00000000E+00
  0.00000000E+00  0.00000000E+00  0.00000000E+00
  0.00000000E+00  0.00000000E+00  0.00000000E+00
  0.00000000E+00  0.00000000E+00  0.00000000E+00
  0.00000000E+00  0.00000000E+00  0.00000000E+00
  0.00000000E+00  0.00000000E+00  0.00000000E+00
  0.00000000E+00  0.00000000E+00  0.00000000E+00
  0.00000000E+00  0.00000000E+00  0.00000000E+00
  0.00000000E+00  0.00000000E+00  0.00000000E+00
  0.00000000E+00  0.00000000E+00  0.00000000E+00
  0.00000000E+00  0.00000000E+00  0.00000000E+00
  0.00000000E+00  0.00000000E+00  0.00000000E+00
  0.00000000E+00  0.00000000E+00  0.00000000E+00
  0.00000000E+00  0.00000000E+00  0.00000000E+00
  0.00000000E+00  0.00000000E+00  0.00000000E+00
  0.00000000E+00  0.00000000E+00  0.00000000E+00
  0.00000000E+00  0.00000000E+00  0.00000000E+00
  0.00000000E+00  0.00000000E+00  0.00000000E+00
  0.00000000E+00  0.00000000E+00  0.00000000E+00
  0.00000000E+00  0.00000000E+00  0.00000000E+00
  0.00000000E+00  0.00000000E+00  0.00000000E+00
  0.00000000E+00  0.00000000E+00  0.00000000E+00
  0.00000000E+00  0.00000000E+00  0.00000000E+00
