Al49, -155.92520044 <s> Ag </s>
  1.00000000000000
    23.57360097087239     0.00000000000000     0.00000000000000
     0.00000000000000    23.57360097087239     0.00000000000000
     0.00000000000000     0.00000000000000    23.57360097087239
  Ag    
  49    
Direct
     0.33702134995846      0.45571742064719      0.61069115229593   
     0.42042872663162      0.37714569042263      0.59162536718950   
     0.41178733618340      0.44588393445046      0.69622707862246   
     0.32737770947297      0.54354938081564      0.53540169892253   
     0.33846341969106      0.41788664511271      0.50151717358803   
     0.42626642299881      0.33616948717164      0.48210565842231   
     0.35908863659403      0.40227571746860      0.38852229751274   
     0.36869948660360      0.51570760265751      0.43245006240252   
     0.50306871249731      0.35846505937802      0.67572936261284   
     0.41311039108558      0.55008408311136      0.62502812700535   
     0.38083707011213      0.63484861919552      0.46695438413227   
     0.50896914975513      0.46885705395995      0.63447923558745   
     0.51187892515922      0.44867246589426      0.75895723389011   
     0.52124743741358      0.40717682815832      0.53341902989474   
     0.35023208730960      0.64445699592713      0.58332356465224   
     0.48512872651677      0.55934358253699      0.71736500403339   
     0.43429807907774      0.48394006973206      0.53257857569874   
     0.60636667587077      0.35930513244595      0.60741548064745   
     0.46967249849133      0.43620686256041      0.42083751040524   
     0.44686461585851      0.32349651411947      0.36799526990561   
     0.53757437288885      0.32654794466021      0.44015776442129   
     0.51099810700418      0.29582686503850      0.56395300570175   
     0.40407068448196      0.49315901865032      0.32365565735203   
     0.42898173799488      0.65697164457907      0.67267287179237   
     0.54278141212345      0.64829567965223      0.64396878822644   
     0.47928825352810      0.56037660213203      0.45377701335259   
     0.48350735880362      0.41120866932934      0.29857412470161   
     0.62916115705058      0.36867620348451      0.49643421725461   
     0.60935915801053      0.42825234858463      0.69831576932710   
     0.52962161856522      0.55558666385520      0.56214198004573   
     0.42935642371334      0.60547649797262      0.35644994135876   
     0.59422940081660      0.54202324325564      0.67622712189873   
     0.57770015455047      0.69052122649513      0.54264191020258   
     0.57259045819221      0.48262138471705      0.46309395095292   
     0.51909923133752      0.51576118642411      0.34220951488613   
     0.62301793967432      0.47408701268559      0.57579663088309   
     0.58234082784521      0.41300618026687      0.36242362201628   
     0.48585033969230      0.68388859935424      0.44292240728826   
     0.46222487974689      0.65182846874653      0.55329502303073   
     0.58908155639357      0.60337979306036      0.46346272225301   
     0.64113451761209      0.59654319378842      0.58596854730983   
     0.67960569912361      0.43897299596240      0.42242978814287   
     0.54866789760153      0.62942614277021      0.35292677298862   
     0.63102725571435      0.53247290953116      0.37148784885109   
     0.68651170150208      0.53468093647549      0.48757568600815   
     0.59205419079994      0.71896953489227      0.42787092327673   
     0.69235199975849      0.65168531239262      0.50236185474091   
     0.67080299408469      0.63847124820550      0.37972587165181   
     0.70462852376404      0.73756075329718      0.42885520363426   
