Al49, -156.0920126 <s> Ag </s>
  1.00000000000000
    24.23790247940171     0.00000000000000     0.00000000000000
     0.00000000000000    24.23790247940171     0.00000000000000
     0.00000000000000     0.00000000000000    24.23790247940171
  Ag    
  49    
Direct
     0.57031542834613      0.67582399210797      0.65315633667124   
     0.65038392730570      0.64718768070156      0.57709929539078   
     0.46768160075379      0.68244508660918      0.60964916822986   
     0.50462205589981      0.59358302801610      0.70132118552096   
     0.60485393336713      0.56445977816202      0.65101011341592   
     0.59631579648705      0.67543649810956      0.47832147057117   
     0.65495956020076      0.46175254378278      0.64704843726457   
     0.48561186167675      0.68368710194326      0.49320181923095   
     0.54095470371964      0.60945877073667      0.56030551939740   
     0.37835446602468      0.66893075389215      0.54530533135777   
     0.70737755486872      0.55156458390989      0.58885856651585   
     0.54801217623542      0.47595754976939      0.70569524091172   
     0.40380662432909      0.58781038874198      0.62681353053494   
     0.42835417988540      0.51098371744636      0.70526301071567   
     0.60779913731057      0.51739105140392      0.54211283347488   
     0.55977544582897      0.41981011210664      0.59945638361339   
     0.68002891066934      0.59037714791190      0.47935543586349   
     0.39543522514219      0.67320573955256      0.43030677980176   
     0.54514821849035      0.56751223319644      0.45579189766089   
     0.49912881300509      0.51984434580330      0.60986858897680   
     0.43905334568752      0.56791006242373      0.50989140138837   
     0.28258410953550      0.66590964036867      0.48501125046509   
     0.75848072700773      0.44583408419471      0.59469677689807   
     0.32031296356957      0.56564397742715      0.54967863904614   
     0.62327877004712      0.61994932107210      0.38415413254473   
     0.66043977482153      0.40013493271721      0.54439666024200   
     0.71781512997487      0.48433942231993      0.49155653015505   
     0.45721333999897      0.41486423630573      0.65524887451606   
     0.36942298379212      0.47716164940420      0.60536424224720   
     0.33821192465661      0.57685790738041      0.43596870386962   
     0.46513718293763      0.44918292174787      0.53609370932504   
     0.64046516269075      0.51067499491980      0.40741909499928   
     0.56507571203560      0.43784588390234      0.47785165138736   
     0.44656831992925      0.58199980282729      0.38558638812229   
     0.36140237447446      0.47764901973366      0.48739753967341   
     0.54568612631863      0.55315038968844      0.33931648021894   
     0.46903212260814      0.47408893642287      0.42668361628823   
     0.57747537792433      0.32557328731077      0.52385503648842   
     0.47867177157356      0.33280197768796      0.58357360848084   
     0.37724582014739      0.37546222135821      0.54508827472288   
     0.47452638365802      0.35500795632551      0.47246834884912   
     0.66224606796296      0.39923146217370      0.42515429377923   
     0.36634085564647      0.49098959754008      0.37320145488082   
     0.56837536985404      0.43848774902734      0.35834245545361   
     0.37746865073992      0.38732882095086      0.42013435549300   
     0.46554821761126      0.47864832477188      0.31179441178059   
     0.57179057964504      0.32999261213211      0.41055976325425   
     0.47695746251381      0.36962603070559      0.35803496131625   
     0.37932944995574      0.39987138205707      0.30241337327619   
