Al34, -106.46262328 <s> Ag </s>         
   1.00000000000000     
    22.0487702323561408    0.0000000000000000    0.0000000000000000
     0.0000000000000000   22.0487702323561408    0.0000000000000000
     0.0000000000000000    0.0000000000000000   22.0487702323561408
   Ag
    34
Direct
  0.5747189488173849  0.7499517651004038  0.5330624166624917
  0.6119018208122294  0.6558272288735369  0.4471677624282903
  0.5015977839209547  0.7184076009683664  0.4343567334233856
  0.6244339764538926  0.5433211493309521  0.3819071486550094
  0.5118194962252997  0.6046972294995286  0.3828984958425736
  0.5397827146697575  0.6697710533517302  0.6375987623777766
  0.6430314080131390  0.5486834844216624  0.5073514821967354
  0.5204097682894974  0.4898230658695431  0.3274797436525527
  0.6320725222908092  0.4265631472585343  0.3254686067903293
  0.4566220549191388  0.7162642540815911  0.5533457548478254
  0.4167877410719416  0.6273507004743184  0.4685260698296180
  0.5236331047285446  0.5972608538635942  0.5350664817883641
  0.6496012897493760  0.6595369752635926  0.5699079383654286
  0.6070435310235548  0.5574938883552985  0.6324939306228226
  0.5249318049636613  0.3755731699375683  0.2771038727403053
  0.4166303669590877  0.5227824740613948  0.3943273688453429
  0.5296400245238556  0.4926874912610771  0.4609307041485103
  0.5660630744639851  0.3642886610945860  0.5261827212650926
  0.5466190348341076  0.3695763430715345  0.4011467261851277
  0.4295450070402917  0.4010564039113473  0.3568362378765164
  0.6485700879959005  0.4455807700096773  0.5783270678111648
  0.4100998895797770  0.5109786248261295  0.5214718387831984
  0.4935052954327219  0.5595995246301773  0.6867959147936067
  0.3400053422090704  0.4332176025296791  0.4434341597553197
  0.4127155794083062  0.6106317820552414  0.6023711809818223
  0.5196172699921172  0.4740683612129073  0.5895085066682266
  0.6462184421866990  0.4323768262702071  0.4506279257192246
  0.4494804582082450  0.3890564722484272  0.4837748850906640
  0.3911152306084822  0.4944615738204532  0.6471663519371323
  0.5779594844139900  0.3733359113661068  0.6530232730159891
  0.3514110919536769  0.4030786989359956  0.5664366156597638
  0.4836040865727914  0.4334425483810348  0.7110791879936564
  0.4629899621112389  0.3557040598975779  0.6078341329584684
  0.3708140180430999  0.3776453317657033  0.6895241363936111
 
  0.00000000E+00  0.00000000E+00  0.00000000E+00
  0.00000000E+00  0.00000000E+00  0.00000000E+00
  0.00000000E+00  0.00000000E+00  0.00000000E+00
  0.00000000E+00  0.00000000E+00  0.00000000E+00
  0.00000000E+00  0.00000000E+00  0.00000000E+00
  0.00000000E+00  0.00000000E+00  0.00000000E+00
  0.00000000E+00  0.00000000E+00  0.00000000E+00
  0.00000000E+00  0.00000000E+00  0.00000000E+00
  0.00000000E+00  0.00000000E+00  0.00000000E+00
  0.00000000E+00  0.00000000E+00  0.00000000E+00
  0.00000000E+00  0.00000000E+00  0.00000000E+00
  0.00000000E+00  0.00000000E+00  0.00000000E+00
  0.00000000E+00  0.00000000E+00  0.00000000E+00
  0.00000000E+00  0.00000000E+00  0.00000000E+00
  0.00000000E+00  0.00000000E+00  0.00000000E+00
  0.00000000E+00  0.00000000E+00  0.00000000E+00
  0.00000000E+00  0.00000000E+00  0.00000000E+00
  0.00000000E+00  0.00000000E+00  0.00000000E+00
  0.00000000E+00  0.00000000E+00  0.00000000E+00
  0.00000000E+00  0.00000000E+00  0.00000000E+00
  0.00000000E+00  0.00000000E+00  0.00000000E+00
  0.00000000E+00  0.00000000E+00  0.00000000E+00
  0.00000000E+00  0.00000000E+00  0.00000000E+00
  0.00000000E+00  0.00000000E+00  0.00000000E+00
  0.00000000E+00  0.00000000E+00  0.00000000E+00
  0.00000000E+00  0.00000000E+00  0.00000000E+00
  0.00000000E+00  0.00000000E+00  0.00000000E+00
  0.00000000E+00  0.00000000E+00  0.00000000E+00
  0.00000000E+00  0.00000000E+00  0.00000000E+00
  0.00000000E+00  0.00000000E+00  0.00000000E+00
  0.00000000E+00  0.00000000E+00  0.00000000E+00
  0.00000000E+00  0.00000000E+00  0.00000000E+00
  0.00000000E+00  0.00000000E+00  0.00000000E+00
  0.00000000E+00  0.00000000E+00  0.00000000E+00
