Al34, -106.46262328 <s> Ag </s>
  1.00000000000000
    22.04877023235614     0.00000000000000     0.00000000000000
     0.00000000000000    22.04877023235614     0.00000000000000
     0.00000000000000     0.00000000000000    22.04877023235614
  Ag    
  34    
Direct
     0.57408713065501      0.74767114766740      0.53834538512009   
     0.60837809214074      0.65412923108139      0.45487522944446   
     0.49885361711685      0.71696736881170      0.43662365428223   
     0.61777036973477      0.54961431746472      0.39254637480809   
     0.50565645612773      0.61368419184664      0.37370364502722   
     0.54659046608423      0.64056307195302      0.60921629791767   
     0.61501600085663      0.54844368294096      0.52187204182473   
     0.51714505349374      0.50352519488163      0.32147214614578   
     0.62616072791602      0.43646507563936      0.34297133267913   
     0.45035496167145      0.70749065564626      0.55176381832750   
     0.39523890688834      0.63830105470611      0.45281895624017   
     0.50174166690948      0.59639180772107      0.50136101479422   
     0.66506474943706      0.65864534137475      0.57112112009686   
     0.63801339730770      0.55725443142313      0.64489888158885   
     0.53243023299439      0.38074519688746      0.28641051898841   
     0.41195333325487      0.52910413005680      0.39570998142193   
     0.52378607987915      0.48199566123231      0.45012492743537   
     0.56561415989415      0.35703457844331      0.53272615302431   
     0.55122803838307      0.35885550772302      0.41169201435875   
     0.43990337802045      0.40587772658295      0.36490983722575   
     0.64937114670259      0.44650968183356      0.58593887316839   
     0.40895753624642      0.51247941010293      0.51870468838240   
     0.51574169721047      0.54864561408873      0.68387997088136   
     0.34214557165949      0.43090481998236      0.44000707445596   
     0.42496159704589      0.60805831815462      0.61056393134693   
     0.52014572859900      0.47655946091707      0.57948225524237   
     0.64652645895407      0.43561809987564      0.46509582522212   
     0.45153244643092      0.38521606646883      0.48683498536484   
     0.39833009043004      0.49696115697108      0.64380385067442   
     0.57976576949580      0.37355950676212      0.65481251299252   
     0.35000914855661      0.41064905954082      0.56201245013627   
     0.48436170259492      0.43022360055752      0.70764855732670   
     0.46169727420728      0.36082114424939      0.60505349170443   
     0.36645872558727      0.38512971441080      0.68553233845571   
