Ti52, -350.28510566 <s> Ag </s>
  1.00000000000000
    23.92270014265649     0.00000000000000     0.00000000000000
     0.00000000000000    23.92270014265649     0.00000000000000
     0.00000000000000     0.00000000000000    23.92270014265649
  Ag    
  52    
Direct
     0.40154978248913      0.46602417694434      0.68391098947533   
     0.53170398421819      0.48181995903745      0.68209369731199   
     0.45749108417283      0.56710849752459      0.70549071763136   
     0.30474202708705      0.48098285010215      0.63087225723142   
     0.58575182779077      0.38125843189571      0.67653120452108   
     0.47523584511343      0.38909641425873      0.62422075344898   
     0.36157539225081      0.57737830659315      0.65010724041353   
     0.36708769808076      0.40532653779403      0.57972413870026   
     0.55084927923497      0.59444045290758      0.65084992750603   
     0.63852266746904      0.48136562426989      0.64647242459683   
     0.45709117391519      0.51578678552334      0.60512194177037   
     0.27408888182861      0.56908315868540      0.57616577856724   
     0.27072399887935      0.46417512718709      0.52279398991333   
     0.56877001345418      0.31236983477723      0.59462522981438   
     0.45841000772276      0.64305016706883      0.61629349863245   
     0.56442465560390      0.42433677629603      0.57786762631517   
     0.66710359260640      0.37350864755159      0.59328348769633   
     0.50691582824341      0.34245841203326      0.50360464419956   
     0.36400229121807      0.51448757878468      0.53349531245090   
     0.46386170635877      0.44443176603479      0.51451299900671   
     0.36535482650787      0.63462086217825      0.54479741063002   
     0.36874988629912      0.41238739332225      0.46344699387153   
     0.66492336848233      0.59728528481844      0.57499023583176   
     0.56905927257857      0.53439539712917      0.56334737715209   
     0.29005846343303      0.57707183917674      0.46654322933550   
     0.62822484011726      0.31774966743005      0.49693423903801   
     0.67307050676972      0.48765937276000      0.54269215031249   
     0.71571192633886      0.40333795383066      0.48848872024876   
     0.60168972610863      0.42330022518985      0.47027302064400   
     0.30232864765700      0.47831604659568      0.41247700806353   
     0.56400981111876      0.34101950385480      0.40191669490316   
     0.47288984049699      0.58630752438744      0.51763431412337   
     0.47872182102455      0.41830949033040      0.40041919742097   
     0.41545262031296      0.52026377228132      0.42848186136306   
     0.66948709069279      0.36942538983857      0.39886998827565   
     0.73507522350453      0.56339517567283      0.48630442130859   
     0.33042033308881      0.56769332739235      0.36138584054297   
     0.56927375072370      0.65190824425441      0.53088920496666   
     0.53351390214503      0.51014462053448      0.44048609449304   
     0.62313540574167      0.57348292657342      0.46492325496713   
     0.38824519268620      0.63857395057178      0.43276371905768   
     0.68118458307260      0.48857280361097      0.41128272755655   
     0.46485265811624      0.69424739086262      0.50244799902726   
     0.68318894987505      0.66575609011330      0.48614021060556   
     0.59000838773400      0.44661186478027      0.35481438494722   
     0.38747363729273      0.47728057209505      0.33136864104246   
     0.50755833649114      0.62061596562686      0.41843330432474   
     0.43332199907117      0.58764706118883      0.33546956311860   
     0.69719846812557      0.60718241998732      0.38949154706437   
     0.49846468541590      0.50313599548929      0.32766388291937   
     0.60577200624507      0.67231602668056      0.40995192735236   
     0.59391218669190      0.57280622901597      0.34712339453539   
