Ag12, -909.0 <s> Cu </s>                
   1.00000000000000     
    20.8382339999999999    0.0000000000000000    0.0000000000000000
     0.0000000000000000   20.8382339999999999    0.0000000000000000
     0.0000000000000000    0.0000000000000000   20.8382339999999999
   Cu
    12
Direct
  0.5000000000000000  0.5000000000000000  0.5617775354370165
  0.4066903034317304  0.6626240692596203  0.5000000000000000
  0.5933096965682697  0.3373759307403797  0.5000000000000000
  0.5000000000000000  0.5000000000000000  0.4382224645629835
  0.5013644071967662  0.3802162806144764  0.4433130491250581
  0.4186161646018877  0.4360364149310168  0.5000000000000000
  0.5854462284323128  0.4489358080509861  0.5000000000000000
  0.5013644071967662  0.3802162806144764  0.5566869508749419
  0.4986355928032337  0.6197837193855236  0.4433130491250581
  0.4145537715676871  0.5510641919490136  0.5000000000000000
  0.5813838353981123  0.5639635850689833  0.5000000000000000
  0.4986355928032337  0.6197837193855236  0.5566869508749419
 
  0.00000000E+00  0.00000000E+00  0.00000000E+00
  0.00000000E+00  0.00000000E+00  0.00000000E+00
  0.00000000E+00  0.00000000E+00  0.00000000E+00
  0.00000000E+00  0.00000000E+00  0.00000000E+00
  0.00000000E+00  0.00000000E+00  0.00000000E+00
  0.00000000E+00  0.00000000E+00  0.00000000E+00
  0.00000000E+00  0.00000000E+00  0.00000000E+00
  0.00000000E+00  0.00000000E+00  0.00000000E+00
  0.00000000E+00  0.00000000E+00  0.00000000E+00
  0.00000000E+00  0.00000000E+00  0.00000000E+00
  0.00000000E+00  0.00000000E+00  0.00000000E+00
  0.00000000E+00  0.00000000E+00  0.00000000E+00
