Ag11 https://doi.org/10.1021/JP404493W <s> Ag </s>
  1.00000000000000
    19.64348700000000     0.00000000000000     0.00000000000000
     0.00000000000000    19.64348700000000     0.00000000000000
     0.00000000000000     0.00000000000000    19.64348700000000
  Ag    
  11    
Cartesian
     0.00007000000000     -2.58623600000000     -0.00836000000000   
     1.41428700000000     -0.62125100000000     -1.45892300000000   
     3.82173700000000     -0.87685900000000     -0.00243300000000   
     1.41626000000000     -0.63958300000000      1.44916600000000   
    -1.41624900000000     -0.63963100000000      1.44914100000000   
    -0.00002300000000      1.82503700000000      1.42294600000000   
     2.50530100000000      1.59078300000000      0.00519300000000   
    -0.00002300000000      1.85517300000000     -1.40058800000000   
    -1.41428500000000     -0.62130400000000     -1.45890800000000   
    -2.50532600000000      1.59075500000000      0.00519100000000   
    -3.82175000000000     -0.87688300000000     -0.00242400000000   
