Al12, -32.87197897 <s> Ni </s>          
   1.00000000000000     
    19.8453329303631207    0.0000000000000000    0.0000000000000000
     0.0000000000000000   19.8453329303631207    0.0000000000000000
     0.0000000000000000    0.0000000000000000   19.8453329303631207
   Ni
    12
Direct
  0.4142907206875858  0.3336332501419913  0.4906069768551292
  0.5427620138707077  0.5212917085610084  0.5505653715481671
  0.3241241046916071  0.3919170046129075  0.3950627491009663
  0.4668565487125627  0.3658945668557190  0.3570003509448185
  0.4769426655351416  0.5114690652563798  0.3222765779262243
  0.5681262116390081  0.4541835519730540  0.4173024609507219
  0.5241937587805392  0.5915083397702292  0.4342475680359077
  0.3694815341292635  0.4432975035033349  0.2800461936287351
  0.5402742191186474  0.3828381719027682  0.5384762867235884
  0.4247840396770667  0.4834583299447269  0.4608058644913386
  0.3099107491921311  0.4241994249937267  0.5364649922405517
  0.4285304207039612  0.4317567162924962  0.6052164298130364
 
  0.00000000E+00  0.00000000E+00  0.00000000E+00
  0.00000000E+00  0.00000000E+00  0.00000000E+00
  0.00000000E+00  0.00000000E+00  0.00000000E+00
  0.00000000E+00  0.00000000E+00  0.00000000E+00
  0.00000000E+00  0.00000000E+00  0.00000000E+00
  0.00000000E+00  0.00000000E+00  0.00000000E+00
  0.00000000E+00  0.00000000E+00  0.00000000E+00
  0.00000000E+00  0.00000000E+00  0.00000000E+00
  0.00000000E+00  0.00000000E+00  0.00000000E+00
  0.00000000E+00  0.00000000E+00  0.00000000E+00
  0.00000000E+00  0.00000000E+00  0.00000000E+00
  0.00000000E+00  0.00000000E+00  0.00000000E+00
