Al11, -29.54887914 <s> Cu </s>          
   1.00000000000000     
    19.5260825052943012    0.0000000000000000    0.0000000000000000
     0.0000000000000000   19.5260825052943012    0.0000000000000000
     0.0000000000000000    0.0000000000000000   19.5260825052943012
   Cu
    11
Direct
  0.4476444602165808  0.3439220312921690  0.4092134176641526
  0.5455993453285052  0.4198575466409069  0.4012599711883316
  0.4358310115104667  0.4394612800187409  0.3295968814305824
  0.5382035040728439  0.5017445510830627  0.3099839560810223
  0.4846550066205706  0.4074648794377871  0.5085990121900518
  0.4798825203530421  0.4391028063819278  0.6299334387382304
  0.4773454183530372  0.5188158624177944  0.4182486139885880
  0.3772976411551936  0.4385371931327413  0.4396207933241681
  0.4872362604834207  0.5240368606282372  0.5413488914081651
  0.3794764973487694  0.4524029639613854  0.5630272280506461
  0.3792686170634292  0.5509446546524455  0.4865021828086977
 
  0.00000000E+00  0.00000000E+00  0.00000000E+00
  0.00000000E+00  0.00000000E+00  0.00000000E+00
  0.00000000E+00  0.00000000E+00  0.00000000E+00
  0.00000000E+00  0.00000000E+00  0.00000000E+00
  0.00000000E+00  0.00000000E+00  0.00000000E+00
  0.00000000E+00  0.00000000E+00  0.00000000E+00
  0.00000000E+00  0.00000000E+00  0.00000000E+00
  0.00000000E+00  0.00000000E+00  0.00000000E+00
  0.00000000E+00  0.00000000E+00  0.00000000E+00
  0.00000000E+00  0.00000000E+00  0.00000000E+00
  0.00000000E+00  0.00000000E+00  0.00000000E+00
