Al11, -29.54887914 <s> Cu </s>
  1.00000000000000
    19.52608250529430     0.00000000000000     0.00000000000000
     0.00000000000000    19.52608250529430     0.00000000000000
     0.00000000000000     0.00000000000000    19.52608250529430
  Cu    
  11    
Direct
     0.45569004620088      0.34213386903410      0.39478983011127   
     0.55459959145754      0.40752389401426      0.40080953400756   
     0.42690718498621      0.44245207468343      0.33264598612845   
     0.53352263185720      0.49193729548975      0.31917654715676   
     0.48536671518705      0.41344056392995      0.50122515728032   
     0.47583873179113      0.44622364853657      0.61836901789621   
     0.47978733436624      0.51384842624547      0.42660306001839   
     0.37633615414989      0.43851796378947      0.43941432933891   
     0.48978716014184      0.53968035288078      0.54555561933926   
     0.37404566243388      0.44683884504317      0.55744815715482   
     0.38055906993400      0.55369369600025      0.50129714844070   
