Al46, -145.93442078 <s> Ag </s>
  1.00000000000000
    23.17611800862206     0.00000000000000     0.00000000000000
     0.00000000000000    23.17611800862206     0.00000000000000
     0.00000000000000     0.00000000000000    23.17611800862206
  Ag    
  46    
Direct
     0.61222256623645      0.43028840972663      0.32209809777036   
     0.52662842079632      0.35976630444724      0.36648198257911   
     0.62266134756951      0.40022101118566      0.43701953596272   
     0.54495185937489      0.30280970697731      0.46792723103025   
     0.66935212563554      0.50842297483047      0.40180421357921   
     0.62165214908020      0.55071979526051      0.30220114411952   
     0.42195115540124      0.41601170691979      0.35274296585801   
     0.43598611712683      0.35439001789675      0.45370787775833   
     0.57900461322978      0.33000587340286      0.57917764292062   
     0.43121432361366      0.53469726701981      0.35361959853061   
     0.65255236048495      0.41629596800274      0.55093186275000   
     0.53843422108889      0.48942797205234      0.39138385950724   
     0.33032887645282      0.41085352798853      0.43076022195486   
     0.45834742318760      0.29842406882236      0.55546196578944   
     0.71254516764932      0.51653033275476      0.51064908961814   
     0.43397653032848      0.47780158245714      0.46225378075367   
     0.61819491733809      0.61668040018689      0.41267880068675   
     0.52177886903575      0.60326248873521      0.32912368576612   
     0.52891543105967      0.41684862134724      0.50420630297495   
     0.59430104816526      0.52324943345890      0.49628765898292   
     0.33276492453373      0.54022220158072      0.42737084093131   
     0.49570088129453      0.34754813576336      0.66297289996410   
     0.34529846118707      0.35603055130037      0.53525149868712   
     0.43763221074339      0.42014519409031      0.57838484489020   
     0.64215737299008      0.52511829725749      0.60698756405047   
     0.50358115216331      0.58769959171001      0.45305343626628   
     0.51518821018895      0.69913989305037      0.39506377163224   
     0.40172153130985      0.64359481855425      0.41141683966397   
     0.38040260139405      0.32618878133323      0.64711313353549   
     0.55518351483831      0.44413366240616      0.62199016305642   
     0.39770984959439      0.58601254102328      0.51814622429008   
     0.67446790833227      0.62691630341743      0.52745067116569   
     0.49306911388958      0.52877974487468      0.55908199081170   
     0.33506900671013      0.48121078361640      0.53606752903108   
     0.33637859710163      0.43845198162558      0.64675006636897   
     0.46350972913110      0.69164022905243      0.50628548460977   
     0.45657145621832      0.45717842538511      0.69897439949185   
     0.58824353281363      0.70699660988873      0.48618535692560   
     0.56138658847708      0.62692526845106      0.56992590434146   
     0.64684162554765      0.62535090576661      0.66153467403706   
     0.52595379492692      0.55800708440268      0.67079363772735   
     0.39422866355544      0.54087656641344      0.63073075684054   
     0.63743506237716      0.72263043844077      0.59700112349661   
     0.45160664262313      0.64116174782281      0.61743915434044   
     0.52175016283913      0.74909944907514      0.58832603524783   
     0.54833441017750      0.68214340667734      0.68221857532709   
