Al41, -129.10574783 <s> Ag </s>         
   1.00000000000000     
    23.1304280900050792    0.0000000000000000    0.0000000000000000
     0.0000000000000000   23.1304280900050792    0.0000000000000000
     0.0000000000000000    0.0000000000000000   23.1304280900050792
   Ag
    41
Direct
  0.7367352270097880  0.5845927977503567  0.5198737135193000
  0.6446712168196785  0.5869954894880924  0.6005426337513167
  0.5518464466228319  0.6263701187208516  0.6732795663930955
  0.6977378422602244  0.4776623573091919  0.5550847599346305
  0.4641794472284927  0.5691634773905402  0.7424681705161182
  0.5631179629954479  0.5089436878742184  0.6569558540493151
  0.4553281616589470  0.4587763196057256  0.6983416235364879
  0.6123639459019113  0.4113859178128680  0.6046614669335701
  0.5189532476177909  0.3643964370155329  0.6641013319970734
  0.6307722070690085  0.6183740068724907  0.4790071673935126
  0.6748869900428195  0.5081607117080860  0.4396462040763927
  0.5372018320808093  0.6303772585061198  0.5545958766961636
  0.4512333468152122  0.6813016575965682  0.6241644661382202
  0.3711764767584715  0.6334278735223078  0.6993578127990452
  0.5817621520718599  0.5096260628106325  0.5298076486354502
  0.6302728851204513  0.3989766939637111  0.4867381689331864
  0.4549694401886227  0.5616772542384809  0.6225458026166020
  0.3534627096085249  0.5193098504837017  0.6765945460775168
  0.4870122387489353  0.4468788251740882  0.5835708880441822
  0.5363241902234160  0.3361112063787605  0.5465239012769884
  0.5459540794258559  0.3250348913560170  0.4255765430539284
  0.5090813865589028  0.4313454994843698  0.4643674732583914
  0.5964431462708316  0.4265048860477029  0.3745615064493854
  0.4261181046120758  0.6575828839665563  0.5093920183883787
  0.4671285691769510  0.5408458841685491  0.4991014076615909
  0.5572661651882926  0.5371911401156839  0.4114999141748648
  0.5222993829918253  0.6540013429570234  0.4359830368702556
  0.6548916277654913  0.5147237154624689  0.3193505343272664
  0.6188063415996274  0.6244182121016802  0.3579257204151596
  0.4641897497906988  0.2588122235369952  0.4922203586540595
  0.3463746513730998  0.6023167607078356  0.5838011402698969
  0.4139931941616563  0.3671224619046476  0.5308218804256744
  0.3720958923665645  0.4837757599081437  0.5590265899416882
  0.4743493813658465  0.4242497414838831  0.3493429408088407
  0.4078909023145008  0.6536768462185165  0.3910839559346899
  0.4235563403398404  0.3383854264399163  0.4138606427116767
  0.3546405320795417  0.5675199713460365  0.4639311269421719
  0.4345229465004834  0.5379505458868523  0.3692135589544879
  0.5380525467292970  0.5116076143873133  0.2961764898597307
  0.5016674439279366  0.6250816382510904  0.3207242787260556
  0.3890666764788333  0.4516419594148446  0.4421976537135648
 
  0.00000000E+00  0.00000000E+00  0.00000000E+00
  0.00000000E+00  0.00000000E+00  0.00000000E+00
  0.00000000E+00  0.00000000E+00  0.00000000E+00
  0.00000000E+00  0.00000000E+00  0.00000000E+00
  0.00000000E+00  0.00000000E+00  0.00000000E+00
  0.00000000E+00  0.00000000E+00  0.00000000E+00
  0.00000000E+00  0.00000000E+00  0.00000000E+00
  0.00000000E+00  0.00000000E+00  0.00000000E+00
  0.00000000E+00  0.00000000E+00  0.00000000E+00
  0.00000000E+00  0.00000000E+00  0.00000000E+00
  0.00000000E+00  0.00000000E+00  0.00000000E+00
  0.00000000E+00  0.00000000E+00  0.00000000E+00
  0.00000000E+00  0.00000000E+00  0.00000000E+00
  0.00000000E+00  0.00000000E+00  0.00000000E+00
  0.00000000E+00  0.00000000E+00  0.00000000E+00
  0.00000000E+00  0.00000000E+00  0.00000000E+00
  0.00000000E+00  0.00000000E+00  0.00000000E+00
  0.00000000E+00  0.00000000E+00  0.00000000E+00
  0.00000000E+00  0.00000000E+00  0.00000000E+00
  0.00000000E+00  0.00000000E+00  0.00000000E+00
  0.00000000E+00  0.00000000E+00  0.00000000E+00
  0.00000000E+00  0.00000000E+00  0.00000000E+00
  0.00000000E+00  0.00000000E+00  0.00000000E+00
  0.00000000E+00  0.00000000E+00  0.00000000E+00
  0.00000000E+00  0.00000000E+00  0.00000000E+00
  0.00000000E+00  0.00000000E+00  0.00000000E+00
  0.00000000E+00  0.00000000E+00  0.00000000E+00
  0.00000000E+00  0.00000000E+00  0.00000000E+00
  0.00000000E+00  0.00000000E+00  0.00000000E+00
  0.00000000E+00  0.00000000E+00  0.00000000E+00
  0.00000000E+00  0.00000000E+00  0.00000000E+00
  0.00000000E+00  0.00000000E+00  0.00000000E+00
  0.00000000E+00  0.00000000E+00  0.00000000E+00
  0.00000000E+00  0.00000000E+00  0.00000000E+00
  0.00000000E+00  0.00000000E+00  0.00000000E+00
  0.00000000E+00  0.00000000E+00  0.00000000E+00
  0.00000000E+00  0.00000000E+00  0.00000000E+00
  0.00000000E+00  0.00000000E+00  0.00000000E+00
  0.00000000E+00  0.00000000E+00  0.00000000E+00
  0.00000000E+00  0.00000000E+00  0.00000000E+00
  0.00000000E+00  0.00000000E+00  0.00000000E+00
