Ag10, -17.73927061 <s> Cu </s>          
   1.00000000000000     
    18.4203863823308289    0.0000000000000000    0.0000000000000000
     0.0000000000000000   18.4203863823308289    0.0000000000000000
     0.0000000000000000    0.0000000000000000   18.4203863823308289
   Cu
    10
Direct
  0.4814977510573583  0.5550399226346712  0.3136740845141496
  0.4550019958128225  0.4325636180157806  0.3506541292629901
  0.4157826250152973  0.5350566834915420  0.4241272438215006
  0.4189363970864834  0.3147507148894674  0.3884967659982522
  0.5420309969870906  0.4993749869363917  0.4230793779095475
  0.5100856136163645  0.3754203745613959  0.4615075223259737
  0.3809630278918534  0.4095292483769757  0.4658805999837458
  0.4734089724381133  0.4745200120640222  0.5351074275479349
  0.3482054055620344  0.5154503274348489  0.5316048354109499
  0.4364715113683050  0.3506784084305983  0.5682523100606710
 
  0.00000000E+00  0.00000000E+00  0.00000000E+00
  0.00000000E+00  0.00000000E+00  0.00000000E+00
  0.00000000E+00  0.00000000E+00  0.00000000E+00
  0.00000000E+00  0.00000000E+00  0.00000000E+00
  0.00000000E+00  0.00000000E+00  0.00000000E+00
  0.00000000E+00  0.00000000E+00  0.00000000E+00
  0.00000000E+00  0.00000000E+00  0.00000000E+00
  0.00000000E+00  0.00000000E+00  0.00000000E+00
  0.00000000E+00  0.00000000E+00  0.00000000E+00
  0.00000000E+00  0.00000000E+00  0.00000000E+00
