Ag10, -17.73927061 <s> Cu </s>
  1.00000000000000
    18.42038638233083     0.00000000000000     0.00000000000000
     0.00000000000000    18.42038638233083     0.00000000000000
     0.00000000000000     0.00000000000000    18.42038638233083
  Cu    
  10    
Direct
     0.48117089728639      0.55559456900795      0.31333397456025   
     0.45631712042030      0.43287291252661      0.34966676092762   
     0.41448884185969      0.53405581811557      0.42250706247515   
     0.41909450449328      0.31594198828014      0.38638649596056   
     0.54313968389111      0.49832295115000      0.42500634348981   
     0.51023869234617      0.37502526925677      0.46127304529751   
     0.37945312794286      0.40849860719903      0.46837901039862   
     0.47338442287994      0.47402590674569      0.53555632242937   
     0.34833655751196      0.51858743999946      0.53030249403172   
     0.43676044820401      0.34945883455448      0.56997278726510   
