Cu10, -936.0 <s> Cu </s>                
   1.00000000000000     
    19.0030949999999983    0.0000000000000000    0.0000000000000000
     0.0000000000000000   19.0030949999999983    0.0000000000000000
     0.0000000000000000    0.0000000000000000   19.0030949999999983
   Cu
    10
Direct
  0.4549872323429369  0.4999539496066276  0.5667508266416590
  0.4549849169306412  0.4999483189448881  0.4332490470631214
  0.4210929640671708  0.6014637826101534  0.4999969110294913
  0.5451061313959613  0.4333189093671308  0.5000071725158506
  0.5449335279332104  0.5667880100583602  0.4999861233130716
  0.3420498397761023  0.4997955017327413  0.4999981739816590
  0.4213909155324416  0.3983301351700916  0.5000025416912379
  0.5787491774366202  0.5001202383085470  0.6015837841151708
  0.5787545449833331  0.5001027148472375  0.3984164053276587
  0.6579507496015822  0.5001784393542223  0.5000090143210869
 
  0.00000000E+00  0.00000000E+00  0.00000000E+00
  0.00000000E+00  0.00000000E+00  0.00000000E+00
  0.00000000E+00  0.00000000E+00  0.00000000E+00
  0.00000000E+00  0.00000000E+00  0.00000000E+00
  0.00000000E+00  0.00000000E+00  0.00000000E+00
  0.00000000E+00  0.00000000E+00  0.00000000E+00
  0.00000000E+00  0.00000000E+00  0.00000000E+00
  0.00000000E+00  0.00000000E+00  0.00000000E+00
  0.00000000E+00  0.00000000E+00  0.00000000E+00
  0.00000000E+00  0.00000000E+00  0.00000000E+00
