Cu10 https://doi.org/10.1039/C7CP02240A <s> Cu </s>
  1.00000000000000
    18.00309500000000     0.00000000000000     0.00000000000000
     0.00000000000000    18.00309500000000     0.00000000000000
     0.00000000000000     0.00000000000000    18.00309500000000
  Cu    
  10    
Cartesian
    -0.85538200000000     -0.00087500000000      1.26847200000000   
    -0.85542600000000     -0.00098200000000     -1.26847500000000   
    -1.49947800000000      1.92812600000000     -0.00005900000000   
     0.85715600000000     -1.26714700000000      0.00013600000000   
     0.85387600000000      1.26917900000000     -0.00026400000000   
    -3.00154200000000     -0.00388600000000     -0.00003500000000   
    -1.49381600000000     -1.93204200000000      0.00004800000000   
     1.49647800000000      0.00228500000000      1.93040600000000   
     1.49658000000000      0.00195200000000     -1.93040300000000   
     3.00155300000000      0.00339100000000      0.00017100000000   
