Tl10, -17.40935317 <s> Pd </s>          
   1.00000000000000     
    19.1310636918767898    0.0000000000000000    0.0000000000000000
     0.0000000000000000   19.1310636918767898    0.0000000000000000
     0.0000000000000000    0.0000000000000000   19.1310636918767898
   Pd
    10
Direct
  0.5430434638717474  0.4196091584185584  0.4508732245161305
  0.4553913075825545  0.4138649598128493  0.5565812833093156
  0.4293941704185022  0.3359031943102386  0.4399050277895992
  0.5127676349725049  0.3562483909624596  0.3325875157353902
  0.5132841440157683  0.4949346088467376  0.3375818049865426
  0.3951182622335948  0.4241699478901796  0.3248214458895815
  0.3032634163507261  0.3453424114697795  0.3865602461822469
  0.4220587733493809  0.4879391247684814  0.4416999871368713
  0.3275076024454953  0.4086917428275313  0.5064422369310616
  0.2919541873320189  0.4837480486415974  0.3945375798674858
 
  0.00000000E+00  0.00000000E+00  0.00000000E+00
  0.00000000E+00  0.00000000E+00  0.00000000E+00
  0.00000000E+00  0.00000000E+00  0.00000000E+00
  0.00000000E+00  0.00000000E+00  0.00000000E+00
  0.00000000E+00  0.00000000E+00  0.00000000E+00
  0.00000000E+00  0.00000000E+00  0.00000000E+00
  0.00000000E+00  0.00000000E+00  0.00000000E+00
  0.00000000E+00  0.00000000E+00  0.00000000E+00
  0.00000000E+00  0.00000000E+00  0.00000000E+00
  0.00000000E+00  0.00000000E+00  0.00000000E+00
