Ag13, -880.0 <s> Cu </s>
  1.00000000000000
    18.70367000000000     0.00000000000000     0.00000000000000
     0.00000000000000    18.70367000000000     0.00000000000000
     0.00000000000000     0.00000000000000    18.70367000000000
  Cu    
  13    
Direct
     0.38942962667174      0.57188746412672      0.50269333999798   
     0.50000000000000      0.43253822133983      0.42608399761269   
     0.38766888362598      0.50000000000000      0.39221244934728   
     0.61057037332826      0.42811253587328      0.50269333999798   
     0.50000000000000      0.56746177866017      0.42608399761269   
     0.61233111637402      0.50000000000000      0.39221244934728   
     0.50000000000000      0.50000000000000      0.55896372208242   
     0.61057037332826      0.57188746412672      0.50269333999798   
     0.50000000000000      0.63298063145996      0.53837170159858   
     0.50000000000000      0.36701936854004      0.53837170159858   
     0.38942962667174      0.42811253587328      0.50269333999798   
     0.37120961990601      0.50000000000000      0.60846331040429   
     0.62879038009399      0.50000000000000      0.60846331040429   
