Tl10, -17.62661508 <s> Pd </s>          
   1.00000000000000     
    20.1555668286726615    0.0000000000000000    0.0000000000000000
     0.0000000000000000   20.1555668286726615    0.0000000000000000
     0.0000000000000000    0.0000000000000000   20.1555668286726615
   Pd
    10
Direct
  0.5573271932858671  0.4303599306581424  0.4582731793454747
  0.4635479559327944  0.4004490429031803  0.3723091614505585
  0.4583347865710864  0.3501414217573543  0.4983886571306214
  0.4681365187950302  0.5234018763479162  0.4262378230745997
  0.4718408242973783  0.4733431871251660  0.5489111780609166
  0.3717966065401140  0.3127494343314614  0.4064348382699496
  0.3716831260032216  0.4431274337350268  0.4666722328702931
  0.3718021815063687  0.4902389570262058  0.3394998405394249
  0.3665814856503328  0.3688875257632220  0.2867382746751388
  0.2802786446695014  0.4020084201192585  0.3819038630707512
 
  0.00000000E+00  0.00000000E+00  0.00000000E+00
  0.00000000E+00  0.00000000E+00  0.00000000E+00
  0.00000000E+00  0.00000000E+00  0.00000000E+00
  0.00000000E+00  0.00000000E+00  0.00000000E+00
  0.00000000E+00  0.00000000E+00  0.00000000E+00
  0.00000000E+00  0.00000000E+00  0.00000000E+00
  0.00000000E+00  0.00000000E+00  0.00000000E+00
  0.00000000E+00  0.00000000E+00  0.00000000E+00
  0.00000000E+00  0.00000000E+00  0.00000000E+00
  0.00000000E+00  0.00000000E+00  0.00000000E+00
