Pt17, -77.40252011 <s> Ag </s>          
   1.00000000000000     
    20.5552009814491292    0.0000000000000000    0.0000000000000000
     0.0000000000000000   20.5552009814491292    0.0000000000000000
     0.0000000000000000    0.0000000000000000   20.5552009814491292
   Ag
    17
Direct
  0.5769930308338205  0.4614607480268886  0.6884491885098540
  0.6121312861910655  0.4519842862888362  0.5585203510183524
  0.5503032685058932  0.3463523775960092  0.6144045884737922
  0.6178659000923961  0.5697889173398856  0.4867029772445584
  0.5533402257598896  0.5687361042899233  0.6093035150545192
  0.4739868329220719  0.4542980114159554  0.5985629253880469
  0.7146821258204954  0.4752651938142865  0.4773741113100621
  0.4760308595951206  0.6772960422593858  0.6280717567739609
  0.3883846959842873  0.6980065798942492  0.5285007567756121
  0.6002170576334241  0.4532200111765111  0.4146480721322174
  0.4140529545307338  0.5703998614264024  0.5716259104153618
  0.5104288855774040  0.6457541376315495  0.4993139697059060
  0.5119603842498307  0.3749035784115625  0.4883157658778625
  0.5140913238482054  0.5567636656212261  0.3974623045219927
  0.4802966447383588  0.4288195054933592  0.3628907372149069
  0.4244674226943065  0.4771635057904827  0.4755137720123270
  0.3913326678718898  0.6011481107552726  0.4360744865547350
 
  0.00000000E+00  0.00000000E+00  0.00000000E+00
  0.00000000E+00  0.00000000E+00  0.00000000E+00
  0.00000000E+00  0.00000000E+00  0.00000000E+00
  0.00000000E+00  0.00000000E+00  0.00000000E+00
  0.00000000E+00  0.00000000E+00  0.00000000E+00
  0.00000000E+00  0.00000000E+00  0.00000000E+00
  0.00000000E+00  0.00000000E+00  0.00000000E+00
  0.00000000E+00  0.00000000E+00  0.00000000E+00
  0.00000000E+00  0.00000000E+00  0.00000000E+00
  0.00000000E+00  0.00000000E+00  0.00000000E+00
  0.00000000E+00  0.00000000E+00  0.00000000E+00
  0.00000000E+00  0.00000000E+00  0.00000000E+00
  0.00000000E+00  0.00000000E+00  0.00000000E+00
  0.00000000E+00  0.00000000E+00  0.00000000E+00
  0.00000000E+00  0.00000000E+00  0.00000000E+00
  0.00000000E+00  0.00000000E+00  0.00000000E+00
  0.00000000E+00  0.00000000E+00  0.00000000E+00
