Ti10, -58.42898862 <s> Cu </s>          
   1.00000000000000     
    26.7609957717004292    0.0000000000000000    0.0000000000000000
     0.0000000000000000   26.7609957717004292    0.0000000000000000
     0.0000000000000000    0.0000000000000000   26.7609957717004292
   Cu
    10
Direct
  0.5885078608072872  0.4724814927477727  0.5122823897918976
  0.5028594533551867  0.4526330128192605  0.5246844348206033
  0.5446369043658715  0.4205632347134527  0.4511480615555618
  0.6085350590584495  0.5418950428682927  0.4582090728152168
  0.2050254799439815  0.4780337266477279  0.4911213143210512
  0.6245268229239883  0.4540588411223995  0.4314465954082716
  0.5243999997497413  0.5312542241175543  0.4849934602925627
  0.5505494262648741  0.4984326506855243  0.4042147361842761
  0.4723298935176759  0.4735144357685091  0.4389373494789111
  0.1667492753441951  0.4046235904649434  0.4942545293376159
 
  0.00000000E+00  0.00000000E+00  0.00000000E+00
  0.00000000E+00  0.00000000E+00  0.00000000E+00
  0.00000000E+00  0.00000000E+00  0.00000000E+00
  0.00000000E+00  0.00000000E+00  0.00000000E+00
  0.00000000E+00  0.00000000E+00  0.00000000E+00
  0.00000000E+00  0.00000000E+00  0.00000000E+00
  0.00000000E+00  0.00000000E+00  0.00000000E+00
  0.00000000E+00  0.00000000E+00  0.00000000E+00
  0.00000000E+00  0.00000000E+00  0.00000000E+00
  0.00000000E+00  0.00000000E+00  0.00000000E+00
