Ag17, -753.0 <s> Ag </s>                
   1.00000000000000     
    20.2868600000000008    0.0000000000000000    0.0000000000000000
     0.0000000000000000   20.2868600000000008    0.0000000000000000
     0.0000000000000000    0.0000000000000000   20.2868600000000008
   Ag
    17
Direct
  0.6515427133979114  0.5267538497979850  0.5000000000000000
  0.6230672793015936  0.4124173319078868  0.4290430413469736
  0.6230672793015936  0.4124173319078868  0.5709569586530263
  0.5074216338513994  0.3789162852332885  0.5000000000000000
  0.5537710708050665  0.5291985607038406  0.4016666782111613
  0.5537710708050665  0.5291985607038406  0.5983333217888386
  0.5708448783075341  0.6313052470704750  0.5000000000000000
  0.5069715823401401  0.4003051755852559  0.3635936326658632
  0.5069715823401401  0.4003051755852559  0.6364063673341367
  0.4003292030256895  0.5101012833371751  0.5000000000000000
  0.4521876976861937  0.6214428837888564  0.5721119835348891
  0.4521876976861937  0.6214428837888564  0.4278880164651108
  0.4214897784287364  0.5074993971900814  0.6353300442664449
  0.4214897784287364  0.5074993971900814  0.3646699557335552
  0.3872968568385601  0.3894894012989737  0.5690154619599098
  0.3872968568385601  0.3894894012989737  0.4309845380400902
  0.4802930406168918  0.7322178336112718  0.5000000000000000
 
  0.00000000E+00  0.00000000E+00  0.00000000E+00
  0.00000000E+00  0.00000000E+00  0.00000000E+00
  0.00000000E+00  0.00000000E+00  0.00000000E+00
  0.00000000E+00  0.00000000E+00  0.00000000E+00
  0.00000000E+00  0.00000000E+00  0.00000000E+00
  0.00000000E+00  0.00000000E+00  0.00000000E+00
  0.00000000E+00  0.00000000E+00  0.00000000E+00
  0.00000000E+00  0.00000000E+00  0.00000000E+00
  0.00000000E+00  0.00000000E+00  0.00000000E+00
  0.00000000E+00  0.00000000E+00  0.00000000E+00
  0.00000000E+00  0.00000000E+00  0.00000000E+00
  0.00000000E+00  0.00000000E+00  0.00000000E+00
  0.00000000E+00  0.00000000E+00  0.00000000E+00
  0.00000000E+00  0.00000000E+00  0.00000000E+00
  0.00000000E+00  0.00000000E+00  0.00000000E+00
  0.00000000E+00  0.00000000E+00  0.00000000E+00
  0.00000000E+00  0.00000000E+00  0.00000000E+00
