Pt49, -249.505616 <s> Ag </s>
  1.00000000000000
    24.14432932651673     0.00000000000000     0.00000000000000
     0.00000000000000    24.14432932651673     0.00000000000000
     0.00000000000000     0.00000000000000    24.14432932651673
  Ag    
  49    
Direct
     0.65682174089895      0.60158440918872      0.64140661625182   
     0.61881192703870      0.66614345824684      0.55157653832440   
     0.71924328321810      0.61077935031872      0.53965578921699   
     0.68096037301367      0.66430501931029      0.45261783523821   
     0.76059161033739      0.55723447251539      0.62694180456573   
     0.56892410417600      0.68698544545069      0.45229688579093   
     0.55348566912707      0.64070653016319      0.64443567156068   
     0.57396284306836      0.53115725799630      0.67991630002898   
     0.68958745102914      0.54988304416558      0.44275370931740   
     0.72636238745174      0.49543409206930      0.53657950940788   
     0.50735727060340      0.69379993430091      0.54808911822782   
     0.61767110033013      0.60612623828148      0.37663591696124   
     0.61575368601870      0.53782941403695      0.54950318643820   
     0.54735419854946      0.57630137237439      0.46105261484493   
     0.51816416548227      0.66317902857899      0.35115987286216   
     0.67457878757159      0.48701623228871      0.64449584475564   
     0.45862925342225      0.65278567626760      0.44888790251347   
     0.44657521322303      0.68065815202404      0.64547697351740   
     0.46730212743935      0.57046095088107      0.67833862090186   
     0.62046405529649      0.49121986471917      0.36772221998385   
     0.68185257235859      0.43426319800516      0.45516052862930   
     0.50550863541492      0.57379123939997      0.56514690185046   
     0.67124176580434      0.40330482199961      0.56975698662997   
     0.53379830935065      0.46075500468763      0.57271941837628   
     0.59065198110790      0.41392475518380      0.65549229691160   
     0.53087376349710      0.55073613120095      0.33593102725355   
     0.62614148962353      0.38033207850355      0.37316636974584   
     0.48540240185175      0.45800765286521      0.68372602514386   
     0.40668177441565      0.63677264808800      0.54816215620767   
     0.42045891290716      0.49098658568031      0.58915858457892   
     0.36208334763703      0.60926460000123      0.65348603262524   
     0.57639570996819      0.35623786485147      0.54634148674482   
     0.42834530344044      0.58895528931111      0.35973331672576   
     0.46800752694789      0.49652799624779      0.48618007120205   
     0.37838003837019      0.49532620957193      0.69150103585441   
     0.57634261730107      0.46457167710469      0.46897481734044   
     0.54198635803827      0.35857199421828      0.43722700614138   
     0.44261214452978      0.49904413448164      0.29023071527558   
     0.50563578822024      0.44557956184074      0.37132636936139   
     0.32882274927075      0.55187715261730      0.55810056822611   
     0.48595856991308      0.36674246891655      0.61783564854362   
     0.38165222629832      0.56938809581529      0.46176964696061   
     0.39404717401255      0.38227193851804      0.55518520461790   
     0.27830058581066      0.53491606898606      0.65886022089255   
     0.31285045871800      0.44352332550674      0.59975482993874   
     0.47584753391355      0.31391833921183      0.51604669329860   
     0.34494050760142      0.46149766318533      0.48716004819900   
     0.39146325854300      0.48193469941899      0.38675034515940   
     0.43192064925636      0.39419226282068      0.44637811827355   
