Ni10, -992.0 <s> Pd </s>                
   1.00000000000000     
    17.5475899999999996    0.0000000000000000    0.0000000000000000
     0.0000000000000000   17.5475899999999996    0.0000000000000000
     0.0000000000000000    0.0000000000000000   17.5475899999999996
   Pd
    10
Direct
  0.5290360488839924  0.7224088941640083  0.5583672154662700
  0.4956859471316757  0.6003238347061935  0.6308387181634501
  0.4982298991100537  0.6067629648826495  0.4749778880748916
  0.4691978344154616  0.4707706951950699  0.6925377786302825
  0.4660057409096372  0.4721675518890864  0.5466935211295448
  0.4736084080710301  0.4832976455090564  0.4013804952985070
  0.6312194531461055  0.6180605973735620  0.5551657125275489
  0.5990839308447458  0.4838730248363535  0.6275232313455830
  0.6013916118608854  0.4894624708052100  0.4716011587802413
  0.7223292696703285  0.5037342686615515  0.5521402515579397
 
  0.00000000E+00  0.00000000E+00  0.00000000E+00
  0.00000000E+00  0.00000000E+00  0.00000000E+00
  0.00000000E+00  0.00000000E+00  0.00000000E+00
  0.00000000E+00  0.00000000E+00  0.00000000E+00
  0.00000000E+00  0.00000000E+00  0.00000000E+00
  0.00000000E+00  0.00000000E+00  0.00000000E+00
  0.00000000E+00  0.00000000E+00  0.00000000E+00
  0.00000000E+00  0.00000000E+00  0.00000000E+00
  0.00000000E+00  0.00000000E+00  0.00000000E+00
  0.00000000E+00  0.00000000E+00  0.00000000E+00
