Ti52, -349.70543658 <s> Ag </s>         
   1.00000000000000     
    23.6334513532910115    0.0000000000000000    0.0000000000000000
     0.0000000000000000   23.6334513532910115    0.0000000000000000
     0.0000000000000000    0.0000000000000000   23.6334513532910115
   Ag
    52
Direct
  0.7055986044264440  0.5805994593748651  0.5600207506105017
  0.6565960386567715  0.6853339830003623  0.5935845996910218
  0.6848123736306513  0.4666172926386668  0.5619980208204668
  0.6662415266204027  0.5803021248057071  0.6706936296436169
  0.6139869343696320  0.7455229553659140  0.5011175250078181
  0.6759083511624145  0.6494446155698415  0.4713954767843945
  0.6444787619720908  0.4623494785443487  0.6735038337406349
  0.5334816681114583  0.7062204999996297  0.5803054892181689
  0.5840001695992463  0.5938879516645867  0.5870182370053745
  0.6058162628612984  0.5304669978158645  0.4889022709992092
  0.5727692301988233  0.6577491820397656  0.6837896721928006
  0.5933184674619721  0.7035047888412723  0.3883413145669140
  0.7113783892974562  0.5298069633622746  0.4507302517681915
  0.5018013355636204  0.7431829072017925  0.4606819219389269
  0.6150917838861301  0.3676030356897687  0.5982966425409123
  0.6255951985799735  0.5896149576837789  0.3841176936404040
  0.5510616538999998  0.5376340218478228  0.6894148717225047
  0.5547975778396680  0.6396610900186643  0.4783318476713658
  0.4695478899787550  0.6128447640682675  0.6340287714736510
  0.5337578716654601  0.4149561756143725  0.6830243543361940
  0.5073982759373351  0.5401685311711019  0.4132762829533372
  0.6278912416481263  0.4059623888896524  0.4786173520348368
  0.5647963815747435  0.4726849490678581  0.5853230161104577
  0.4768516939789471  0.6503020609414720  0.3855376369759668
  0.6014297437866557  0.4731999887915000  0.3804074153220854
  0.4904613779628899  0.5516937841599265  0.5300190732581322
  0.5165456995403795  0.4422808002347245  0.4806868160842735
  0.5418331401869128  0.5673366549567039  0.3058031309172838
  0.4549034268716468  0.4901717687560120  0.6299143232136782
  0.5118333240074534  0.3128271985946015  0.6284899236950484
  0.5405613589858808  0.3266567839229332  0.5103323017455574
  0.3653775994982335  0.5415458452534353  0.6799627127517606
  0.4412881218474904  0.6598764019731913  0.5198042182097034
  0.5428087363092985  0.3669071426329644  0.3949666508552513
  0.5112068544693551  0.4501884186782537  0.3024451048250838
  0.4482891176332509  0.3885477245955943  0.5619444106619704
  0.4164054533227167  0.3828533376362831  0.6732291347505628
  0.4227054287389768  0.5476182386825659  0.3318799374776482
  0.3759866745271362  0.5707194221934850  0.5677982222689774
  0.4393586810773046  0.4401423484053912  0.3908981612250562
  0.3912003438395687  0.5818845015727988  0.4442736477455023
  0.4051744058090919  0.4770922773215008  0.4959161550016420
  0.3466823705961745  0.3342148900820782  0.5863271567384547
  0.3422562914791304  0.4536167927831156  0.5984244163508663
  0.4343233053121076  0.3371722121123076  0.4493439512954760
  0.4384738632189655  0.2695668966910825  0.5461007726112054
  0.3847944943273088  0.4424926014301474  0.2880196794680977
  0.4492065103160853  0.3438048662130514  0.3246693125316070
  0.3314464138638636  0.4869129209241960  0.3917900402705501
  0.3228533531215488  0.3943241688627289  0.4879407752205414
  0.2947696637270066  0.5127933015601200  0.5013991304252473
  0.3428895917531499  0.3678634552874850  0.3751069471249792
 
  0.00000000E+00  0.00000000E+00  0.00000000E+00
  0.00000000E+00  0.00000000E+00  0.00000000E+00
  0.00000000E+00  0.00000000E+00  0.00000000E+00
  0.00000000E+00  0.00000000E+00  0.00000000E+00
  0.00000000E+00  0.00000000E+00  0.00000000E+00
  0.00000000E+00  0.00000000E+00  0.00000000E+00
  0.00000000E+00  0.00000000E+00  0.00000000E+00
  0.00000000E+00  0.00000000E+00  0.00000000E+00
  0.00000000E+00  0.00000000E+00  0.00000000E+00
  0.00000000E+00  0.00000000E+00  0.00000000E+00
  0.00000000E+00  0.00000000E+00  0.00000000E+00
  0.00000000E+00  0.00000000E+00  0.00000000E+00
  0.00000000E+00  0.00000000E+00  0.00000000E+00
  0.00000000E+00  0.00000000E+00  0.00000000E+00
  0.00000000E+00  0.00000000E+00  0.00000000E+00
  0.00000000E+00  0.00000000E+00  0.00000000E+00
  0.00000000E+00  0.00000000E+00  0.00000000E+00
  0.00000000E+00  0.00000000E+00  0.00000000E+00
  0.00000000E+00  0.00000000E+00  0.00000000E+00
  0.00000000E+00  0.00000000E+00  0.00000000E+00
  0.00000000E+00  0.00000000E+00  0.00000000E+00
  0.00000000E+00  0.00000000E+00  0.00000000E+00
  0.00000000E+00  0.00000000E+00  0.00000000E+00
  0.00000000E+00  0.00000000E+00  0.00000000E+00
  0.00000000E+00  0.00000000E+00  0.00000000E+00
  0.00000000E+00  0.00000000E+00  0.00000000E+00
  0.00000000E+00  0.00000000E+00  0.00000000E+00
  0.00000000E+00  0.00000000E+00  0.00000000E+00
  0.00000000E+00  0.00000000E+00  0.00000000E+00
  0.00000000E+00  0.00000000E+00  0.00000000E+00
  0.00000000E+00  0.00000000E+00  0.00000000E+00
  0.00000000E+00  0.00000000E+00  0.00000000E+00
  0.00000000E+00  0.00000000E+00  0.00000000E+00
  0.00000000E+00  0.00000000E+00  0.00000000E+00
  0.00000000E+00  0.00000000E+00  0.00000000E+00
  0.00000000E+00  0.00000000E+00  0.00000000E+00
  0.00000000E+00  0.00000000E+00  0.00000000E+00
  0.00000000E+00  0.00000000E+00  0.00000000E+00
  0.00000000E+00  0.00000000E+00  0.00000000E+00
  0.00000000E+00  0.00000000E+00  0.00000000E+00
  0.00000000E+00  0.00000000E+00  0.00000000E+00
  0.00000000E+00  0.00000000E+00  0.00000000E+00
  0.00000000E+00  0.00000000E+00  0.00000000E+00
  0.00000000E+00  0.00000000E+00  0.00000000E+00
  0.00000000E+00  0.00000000E+00  0.00000000E+00
  0.00000000E+00  0.00000000E+00  0.00000000E+00
  0.00000000E+00  0.00000000E+00  0.00000000E+00
  0.00000000E+00  0.00000000E+00  0.00000000E+00
  0.00000000E+00  0.00000000E+00  0.00000000E+00
  0.00000000E+00  0.00000000E+00  0.00000000E+00
  0.00000000E+00  0.00000000E+00  0.00000000E+00
  0.00000000E+00  0.00000000E+00  0.00000000E+00
