Ag10, -17.78580638 <s> Ag </s>          
   1.00000000000000     
    19.5023523735611590    0.0000000000000000    0.0000000000000000
     0.0000000000000000   19.5023523735611590    0.0000000000000000
     0.0000000000000000    0.0000000000000000   19.5023523735611590
   Ag
    10
Direct
  0.5002139853756735  0.6372125443763466  0.3387898267215504
  0.3908684729195233  0.6331791092303591  0.4266166518464482
  0.4949984089174126  0.5408316554036604  0.4402159610038930
  0.5961239593022718  0.4438245157313326  0.4534357978516936
  0.6022786678038767  0.5412842709949423  0.3507966493011928
  0.4973746737627855  0.4498168805360291  0.5534199066815523
  0.6022680733478764  0.3573194369111310  0.5659738997530822
  0.3957517269212236  0.5475063557056737  0.5398675687267896
  0.4076194672570828  0.4708924866742428  0.6585802207414296
  0.5125025643922737  0.3781327444362895  0.6723035173723684
 
  0.00000000E+00  0.00000000E+00  0.00000000E+00
  0.00000000E+00  0.00000000E+00  0.00000000E+00
  0.00000000E+00  0.00000000E+00  0.00000000E+00
  0.00000000E+00  0.00000000E+00  0.00000000E+00
  0.00000000E+00  0.00000000E+00  0.00000000E+00
  0.00000000E+00  0.00000000E+00  0.00000000E+00
  0.00000000E+00  0.00000000E+00  0.00000000E+00
  0.00000000E+00  0.00000000E+00  0.00000000E+00
  0.00000000E+00  0.00000000E+00  0.00000000E+00
  0.00000000E+00  0.00000000E+00  0.00000000E+00
