Ni10, -992.0 <s> Cu </s>                
   1.00000000000000     
    17.5475899999999996    0.0000000000000000    0.0000000000000000
     0.0000000000000000   17.5475899999999996    0.0000000000000000
     0.0000000000000000    0.0000000000000000   17.5475899999999996
   Cu
    10
Direct
  0.4849899018545603  0.6765511129264504  0.5183983914927974
  0.4630632043081849  0.5586374519509157  0.5813540457842371
  0.4663305831356928  0.5649084620210689  0.4431111643550951
  0.4402224331348690  0.4435365214728979  0.6504254420642192
  0.4349902684749660  0.4434274720723347  0.5072276543743458
  0.4444247336422946  0.4550871373348240  0.3664486397016384
  0.5861855172125908  0.5767010975616959  0.5135216942131028
  0.5549659382480115  0.4547329729456236  0.5786019543834111
  0.5580192278495839  0.4616478200113017  0.4401484882818706
  0.6732610069119407  0.4635692411243862  0.5127896389426386
 
  0.00000000E+00  0.00000000E+00  0.00000000E+00
  0.00000000E+00  0.00000000E+00  0.00000000E+00
  0.00000000E+00  0.00000000E+00  0.00000000E+00
  0.00000000E+00  0.00000000E+00  0.00000000E+00
  0.00000000E+00  0.00000000E+00  0.00000000E+00
  0.00000000E+00  0.00000000E+00  0.00000000E+00
  0.00000000E+00  0.00000000E+00  0.00000000E+00
  0.00000000E+00  0.00000000E+00  0.00000000E+00
  0.00000000E+00  0.00000000E+00  0.00000000E+00
  0.00000000E+00  0.00000000E+00  0.00000000E+00
