Ni10, -992.0 <s> Cu </s>
  1.00000000000000
    17.54759000000000     0.00000000000000     0.00000000000000
     0.00000000000000    17.54759000000000     0.00000000000000
     0.00000000000000     0.00000000000000    17.54759000000000
  Cu    
  10    
Direct
     0.49267274393175      0.67173199867239      0.51793012591103   
     0.46260789976449      0.55988364443848      0.58341318677013   
     0.46514570825785      0.56555745914148      0.44231863627004   
     0.43824376873127      0.44204571131114      0.64033552957791   
     0.43596734281776      0.44395783890867      0.50729062693946   
     0.44227677914111      0.45349450220778      0.37441588611475   
     0.58554834830957      0.57588879565314      0.51463974609718   
     0.55640214403703      0.45453535453916      0.58037717255411   
     0.55848034020878      0.45960278504686      0.43930367300006   
     0.66910773957308      0.47210119950239      0.51200253035869   
