Pt11, -47.06937691 <s> Cu </s>          
   1.00000000000000     
    18.7737662266973793    0.0000000000000000    0.0000000000000000
     0.0000000000000000   18.7737662266973793    0.0000000000000000
     0.0000000000000000    0.0000000000000000   18.7737662266973793
   Cu
    11
Direct
  0.5861648666735750  0.4441352850490381  0.4137638744182665
  0.5294509266506768  0.4720419911946176  0.5258633869954612
  0.4939313482441930  0.5368476302314164  0.4204078232419488
  0.3799911739278831  0.6006969753530299  0.4318264523709301
  0.5525289347445091  0.3458851045370760  0.5001114815061376
  0.4992323125004726  0.4529608065505738  0.3178943270385009
  0.4634084162701464  0.4031717248093062  0.4292712151796054
  0.4387994950612450  0.3840940040445173  0.5535901272903427
  0.3846489387772450  0.4877119956619446  0.3735261103905994
  0.3613922020345639  0.4574590983399791  0.6187005119903504
  0.4008793637264594  0.4996107834679329  0.5064341680189085
 
  0.00000000E+00  0.00000000E+00  0.00000000E+00
  0.00000000E+00  0.00000000E+00  0.00000000E+00
  0.00000000E+00  0.00000000E+00  0.00000000E+00
  0.00000000E+00  0.00000000E+00  0.00000000E+00
  0.00000000E+00  0.00000000E+00  0.00000000E+00
  0.00000000E+00  0.00000000E+00  0.00000000E+00
  0.00000000E+00  0.00000000E+00  0.00000000E+00
  0.00000000E+00  0.00000000E+00  0.00000000E+00
  0.00000000E+00  0.00000000E+00  0.00000000E+00
  0.00000000E+00  0.00000000E+00  0.00000000E+00
  0.00000000E+00  0.00000000E+00  0.00000000E+00
