Mo11, -837.0 <s> Cu </s>                
   1.00000000000000     
    17.9438880000000012    0.0000000000000000    0.0000000000000000
     0.0000000000000000   17.9438880000000012    0.0000000000000000
     0.0000000000000000    0.0000000000000000   17.9438880000000012
   Cu
    11
Direct
  0.5617313360913671  0.5853271956844522  0.5542571944128293
  0.5875276487147977  0.4504712848190297  0.5759917852284567
  0.3849228951086630  0.4037595988684535  0.5131387309708011
  0.4222801149534325  0.5206267738662408  0.4489131674804899
  0.5104811879895889  0.4187715513903144  0.4693677928612752
  0.5241583084349375  0.6218848058007294  0.4256026204120187
  0.6071486962947710  0.5153610773971830  0.4557700649325519
  0.4870284408230030  0.3598756375632641  0.5927499688017188
  0.4370813894803831  0.6246463820480613  0.5292683073793564
  0.4602677603817176  0.4946802035653231  0.5765545993575351
  0.5173722181666526  0.5045954854362562  0.3583857610415522
 
  0.00000000E+00  0.00000000E+00  0.00000000E+00
  0.00000000E+00  0.00000000E+00  0.00000000E+00
  0.00000000E+00  0.00000000E+00  0.00000000E+00
  0.00000000E+00  0.00000000E+00  0.00000000E+00
  0.00000000E+00  0.00000000E+00  0.00000000E+00
  0.00000000E+00  0.00000000E+00  0.00000000E+00
  0.00000000E+00  0.00000000E+00  0.00000000E+00
  0.00000000E+00  0.00000000E+00  0.00000000E+00
  0.00000000E+00  0.00000000E+00  0.00000000E+00
  0.00000000E+00  0.00000000E+00  0.00000000E+00
  0.00000000E+00  0.00000000E+00  0.00000000E+00
