Mo11, -837.0 <s> Cu </s>
  1.00000000000000
    17.94388800000000     0.00000000000000     0.00000000000000
     0.00000000000000    17.94388800000000     0.00000000000000
     0.00000000000000     0.00000000000000    17.94388800000000
  Cu    
  11    
Direct
     0.57351621474352      0.59938948144054      0.54869252258455   
     0.59100176543240      0.47163948698230      0.56305536658039   
     0.37269129446986      0.39745926552210      0.51137748703392   
     0.41662193163028      0.50882164916685      0.45425117345499   
     0.51819571646379      0.41640517119208      0.47581943699425   
     0.52563286882706      0.61768202784988      0.42971498739118   
     0.61964862670396      0.53123645220807      0.45142551464042   
     0.45442933421237      0.35976642513551      0.57672144705937   
     0.44452142586511      0.60613206136719      0.52871607884088   
     0.46767065813592      0.49106336115644      0.58232419574314   
     0.51607015995503      0.50040461441834      0.37790178255549   
