Tl10, -17.38186479 <s> Cu </s>          
   1.00000000000000     
    19.8110353792785610    0.0000000000000000    0.0000000000000000
     0.0000000000000000   19.8110353792785610    0.0000000000000000
     0.0000000000000000    0.0000000000000000   19.8110353792785610
   Cu
    10
Direct
  0.5039423173478156  0.3423252917020011  0.4151533488030552
  0.4059855480560279  0.3467769292540521  0.4829025846282172
  0.3987630858755671  0.3246797400894786  0.3553893482012164
  0.4981027402024097  0.3809758496165030  0.2983168524268697
  0.3063231527270827  0.3667307238807178  0.5448594212022355
  0.3113184446684898  0.3918129209134043  0.4283988131801920
  0.4304095720936113  0.4372619477876775  0.3930518188932784
  0.3908973653219047  0.4218699785887143  0.2760539607877247
  0.2928176367192968  0.3616479786330742  0.3127363414308281
  0.3273438109748719  0.4870378199781640  0.3558953885499832
 
  0.00000000E+00  0.00000000E+00  0.00000000E+00
  0.00000000E+00  0.00000000E+00  0.00000000E+00
  0.00000000E+00  0.00000000E+00  0.00000000E+00
  0.00000000E+00  0.00000000E+00  0.00000000E+00
  0.00000000E+00  0.00000000E+00  0.00000000E+00
  0.00000000E+00  0.00000000E+00  0.00000000E+00
  0.00000000E+00  0.00000000E+00  0.00000000E+00
  0.00000000E+00  0.00000000E+00  0.00000000E+00
  0.00000000E+00  0.00000000E+00  0.00000000E+00
  0.00000000E+00  0.00000000E+00  0.00000000E+00
