Li11, -14.25965705 <s> Cu </s>          
   1.00000000000000     
    19.2551554439710095    0.0000000000000000    0.0000000000000000
     0.0000000000000000   19.2551554439710095    0.0000000000000000
     0.0000000000000000    0.0000000000000000   19.2551554439710095
   Cu
    11
Direct
  0.4628226727410191  0.2654362318165460  0.4831449935707675
  0.4124733167332049  0.3335118367635250  0.3935587754769433
  0.5309211622941303  0.3616800569481314  0.4461510253970237
  0.3677945507110866  0.4226916636483277  0.3143976475062669
  0.4282512639918327  0.3875246082188735  0.5097909588106668
  0.3334583781920720  0.4272580285081751  0.4340988458246945
  0.4577891722488459  0.4543250200119885  0.3925373343103273
  0.5238082722816871  0.4786476863006250  0.4925764382960129
  0.3647629348761222  0.5383262644621064  0.3745712474836873
  0.4757260339404326  0.5771738234003273  0.4217006327127479
  0.4003869341066604  0.5116194720384898  0.4956667927279626
 
  0.00000000E+00  0.00000000E+00  0.00000000E+00
  0.00000000E+00  0.00000000E+00  0.00000000E+00
  0.00000000E+00  0.00000000E+00  0.00000000E+00
  0.00000000E+00  0.00000000E+00  0.00000000E+00
  0.00000000E+00  0.00000000E+00  0.00000000E+00
  0.00000000E+00  0.00000000E+00  0.00000000E+00
  0.00000000E+00  0.00000000E+00  0.00000000E+00
  0.00000000E+00  0.00000000E+00  0.00000000E+00
  0.00000000E+00  0.00000000E+00  0.00000000E+00
  0.00000000E+00  0.00000000E+00  0.00000000E+00
  0.00000000E+00  0.00000000E+00  0.00000000E+00
