Y55, -21 <s> Ag </s>                    
   1.00000000000000     
    26.6192044065198203    0.0000000000000000    0.0000000000000000
     0.0000000000000000   26.6192044065198203    0.0000000000000000
     0.0000000000000000    0.0000000000000000   26.6192044065198203
   Ag
    55
Direct
  0.3432808587405109  0.4253710003526936  0.5977753363604242
  0.5847306604352165  0.5136074630472780  0.4448794223848111
  0.5417760311658928  0.3615549028229356  0.5807827972098820
  0.4233847021688391  0.4436100330552725  0.3668090796860177
  0.5870362090285557  0.5254024508329870  0.5525213572801966
  0.5358506157915659  0.5497341108018771  0.2903436934887423
  0.4073662174524093  0.4333867929857824  0.5095975077755802
  0.3319855112571623  0.4382595129233355  0.4318090884366991
  0.4936824769473523  0.5413142266294569  0.3889003305305292
  0.5195868853841301  0.4378733013918263  0.6552606239288331
  0.4200440275145922  0.4721231904959770  0.6511213089497010
  0.4941359110671183  0.5479342580223597  0.4976320208314149
  0.3956545809685013  0.6029928041229476  0.3836714836692355
  0.3143916531349690  0.5664603080414464  0.4456934096572356
  0.4956690385335931  0.5501470169108528  0.6097536118616562
  0.3993794400811903  0.6206562018758431  0.4893938959236463
  0.5248708507159466  0.4535966347148195  0.3367172017532643
  0.6881993298162125  0.4714346548434427  0.4023969788570880
  0.5992848832598312  0.4117018530096170  0.3973472759159217
  0.4974652649929540  0.4496907060954605  0.4471517063587051
  0.6829786197544118  0.4993273677766248  0.5008828074516116
  0.5911061756069421  0.4291966521641011  0.5090790032888733
  0.4988219795525849  0.4588439038978264  0.5549674261249036
  0.3427508803606548  0.5132369469561756  0.3581372086884828
  0.6166703631000912  0.4315855410339109  0.6157732687541966
  0.4820809890131573  0.6307059947676202  0.3305775615752299
  0.3287769588074195  0.5255729727137672  0.6276479404699539
  0.5767356512646635  0.6064839649917737  0.3783798624777763
  0.4880240555968116  0.6370737297302274  0.4364038552233446
  0.4098105729043005  0.5727644162697597  0.6769841498201639
  0.5793039542281927  0.6183675909456295  0.4860881467310066
  0.4920898337947515  0.6427354890344051  0.5444381580561780
  0.4952237242567835  0.5237011851715725  0.7121848723778152
  0.4032370376052086  0.3614468589731507  0.4278104623218357
  0.6774967735923582  0.3890479759074998  0.4664256919863444
  0.6784378720256500  0.5177976133040361  0.6065402837243791
  0.4388941613594466  0.3807618990235259  0.5986448688068875
  0.7081754979368959  0.4229987014127123  0.5651661850878887
  0.5875097045044675  0.5264031415527598  0.6605451956654507
  0.4312428372601826  0.5337505548445970  0.3057426317676914
  0.6650668916009067  0.5764417913397445  0.4285752083613563
  0.3153877249965935  0.5931265919714735  0.5476462519372710
  0.4056631465039376  0.5160117905105838  0.4460204175356376
  0.3391355228776177  0.3605128880306058  0.5131919172493501
  0.4006584415136067  0.6320652252274457  0.5941783167254830
  0.4058331643449437  0.5298205976921072  0.5565518541093342
  0.3111866074759732  0.4897774861339127  0.5213887527124959
  0.4908047910708723  0.6425002828077644  0.6531975773010826
  0.5752556394181392  0.3347964285815116  0.4701524923080265
  0.5035519395155021  0.3624442454803853  0.3927621193625384
  0.5819361711774087  0.6188630178531584  0.5988904088980824
  0.6403282135010013  0.3443814882142101  0.5544626321238398
  0.4760411794933662  0.3514148668272380  0.5006287190830114
  0.6665673453979962  0.5973349411849713  0.5366822133504271
  0.6154404301305936  0.5118544346970283  0.3436934076824655
 
  0.00000000E+00  0.00000000E+00  0.00000000E+00
  0.00000000E+00  0.00000000E+00  0.00000000E+00
  0.00000000E+00  0.00000000E+00  0.00000000E+00
  0.00000000E+00  0.00000000E+00  0.00000000E+00
  0.00000000E+00  0.00000000E+00  0.00000000E+00
  0.00000000E+00  0.00000000E+00  0.00000000E+00
  0.00000000E+00  0.00000000E+00  0.00000000E+00
  0.00000000E+00  0.00000000E+00  0.00000000E+00
  0.00000000E+00  0.00000000E+00  0.00000000E+00
  0.00000000E+00  0.00000000E+00  0.00000000E+00
  0.00000000E+00  0.00000000E+00  0.00000000E+00
  0.00000000E+00  0.00000000E+00  0.00000000E+00
  0.00000000E+00  0.00000000E+00  0.00000000E+00
  0.00000000E+00  0.00000000E+00  0.00000000E+00
  0.00000000E+00  0.00000000E+00  0.00000000E+00
  0.00000000E+00  0.00000000E+00  0.00000000E+00
  0.00000000E+00  0.00000000E+00  0.00000000E+00
  0.00000000E+00  0.00000000E+00  0.00000000E+00
  0.00000000E+00  0.00000000E+00  0.00000000E+00
  0.00000000E+00  0.00000000E+00  0.00000000E+00
  0.00000000E+00  0.00000000E+00  0.00000000E+00
  0.00000000E+00  0.00000000E+00  0.00000000E+00
  0.00000000E+00  0.00000000E+00  0.00000000E+00
  0.00000000E+00  0.00000000E+00  0.00000000E+00
  0.00000000E+00  0.00000000E+00  0.00000000E+00
  0.00000000E+00  0.00000000E+00  0.00000000E+00
  0.00000000E+00  0.00000000E+00  0.00000000E+00
  0.00000000E+00  0.00000000E+00  0.00000000E+00
  0.00000000E+00  0.00000000E+00  0.00000000E+00
  0.00000000E+00  0.00000000E+00  0.00000000E+00
  0.00000000E+00  0.00000000E+00  0.00000000E+00
  0.00000000E+00  0.00000000E+00  0.00000000E+00
  0.00000000E+00  0.00000000E+00  0.00000000E+00
  0.00000000E+00  0.00000000E+00  0.00000000E+00
  0.00000000E+00  0.00000000E+00  0.00000000E+00
  0.00000000E+00  0.00000000E+00  0.00000000E+00
  0.00000000E+00  0.00000000E+00  0.00000000E+00
  0.00000000E+00  0.00000000E+00  0.00000000E+00
  0.00000000E+00  0.00000000E+00  0.00000000E+00
  0.00000000E+00  0.00000000E+00  0.00000000E+00
  0.00000000E+00  0.00000000E+00  0.00000000E+00
  0.00000000E+00  0.00000000E+00  0.00000000E+00
  0.00000000E+00  0.00000000E+00  0.00000000E+00
  0.00000000E+00  0.00000000E+00  0.00000000E+00
  0.00000000E+00  0.00000000E+00  0.00000000E+00
  0.00000000E+00  0.00000000E+00  0.00000000E+00
  0.00000000E+00  0.00000000E+00  0.00000000E+00
  0.00000000E+00  0.00000000E+00  0.00000000E+00
  0.00000000E+00  0.00000000E+00  0.00000000E+00
  0.00000000E+00  0.00000000E+00  0.00000000E+00
  0.00000000E+00  0.00000000E+00  0.00000000E+00
  0.00000000E+00  0.00000000E+00  0.00000000E+00
  0.00000000E+00  0.00000000E+00  0.00000000E+00
  0.00000000E+00  0.00000000E+00  0.00000000E+00
  0.00000000E+00  0.00000000E+00  0.00000000E+00
