Ti50, -335.66086188 <s> Ag </s>         
   1.00000000000000     
    22.9903196548835211    0.0000000000000000    0.0000000000000000
     0.0000000000000000   22.9903196548835211    0.0000000000000000
     0.0000000000000000    0.0000000000000000   22.9903196548835211
   Ag
    50
Direct
  0.4883711029343568  0.3796279296223524  0.4030520012120885
  0.4234918013678214  0.4448048898746926  0.3187060940083889
  0.5455401424357231  0.4549990975693743  0.3207497375962376
  0.4423135684323377  0.3416942829242799  0.5139992544904119
  0.3080554319272639  0.4557699098558324  0.3527630203916209
  0.5622240715044974  0.3242764844228128  0.4941107578320443
  0.3648481104384024  0.3776534300541942  0.4258644753894114
  0.3540188062568728  0.5436902764911195  0.2836497090111215
  0.6073647150279570  0.4117954496093787  0.4225641794237783
  0.6869074986810113  0.3352511075249756  0.4927166687489585
  0.4702411843844375  0.5574080003228448  0.3007079663631547
  0.5284017951032568  0.5329487957663855  0.4081107758768630
  0.5124324128948211  0.4453406520660787  0.5042736206809515
  0.6637060822499268  0.5085619239298184  0.3788811798561401
  0.4139444259845336  0.4879466183159222  0.4347523621851054
  0.5211043670900221  0.3597535600602245  0.6071196882621140
  0.3200940204941328  0.5698628075877941  0.3974762079660033
  0.5903360309505398  0.5710854304401316  0.3066733746382790
  0.6346055104470004  0.3096522944406695  0.6006927435463976
  0.3723364820597569  0.4335636069210868  0.5389351718494155
  0.7157862365841882  0.4527570639231997  0.4783512868796875
  0.2889955293756158  0.4779712562484416  0.4694493276719447
  0.6204120066595243  0.4185256634550429  0.5524833957667731
  0.3914353703651439  0.6525397869512287  0.3305547018759934
  0.7215840823168490  0.4071774809029005  0.6105801833386945
  0.6157123518693857  0.5229129176023631  0.4882532433497664
  0.6279908636620126  0.6221937917927464  0.4163312591556169
  0.4351553461402524  0.6076018050941778  0.4314452358805945
  0.6115953382780723  0.4008416244779502  0.6793188639382690
  0.5203564917866893  0.6570049172787190  0.3568499128911494
  0.3634897262162038  0.5621296093357191  0.5250637943410573
  0.4674111074254368  0.4756700029245218  0.6130661512238521
  0.3377703590038655  0.6769162181029229  0.4492231556626308
  0.4032307949057802  0.3784906118594282  0.6416112752019059
  0.3491347466154736  0.4996945528242068  0.6353489679119868
  0.4950803511249875  0.5632279846875423  0.5270707647766422
  0.6795775562966248  0.4982851889402635  0.6903020483359585
  0.4453750519809760  0.7279696499009903  0.4207049366734599
  0.4966971924754672  0.4089425728407648  0.7162287859919042
  0.7001072661004043  0.5250975723269394  0.5763301064790753
  0.5793751973227664  0.5204799498438024  0.6065755697454107
  0.5406183850554194  0.6747883725732338  0.4804572682518820
  0.6322392437279003  0.6255027025027219  0.5463244449737935
  0.4283496277267903  0.6740517842173960  0.5352197061187932
  0.4260644589732396  0.5945660713700105  0.6298285413560558
  0.5645897839278110  0.5080869405325326  0.7313049851898437
  0.4369879313127958  0.5149498890250658  0.7247883364303268
  0.5303821673492081  0.6532625509526913  0.6054710049465328
  0.6240783665924258  0.6065343334785597  0.6748302046394856
  0.5089215917670465  0.6140919071522504  0.7196266685910228
 
  0.00000000E+00  0.00000000E+00  0.00000000E+00
  0.00000000E+00  0.00000000E+00  0.00000000E+00
  0.00000000E+00  0.00000000E+00  0.00000000E+00
  0.00000000E+00  0.00000000E+00  0.00000000E+00
  0.00000000E+00  0.00000000E+00  0.00000000E+00
  0.00000000E+00  0.00000000E+00  0.00000000E+00
  0.00000000E+00  0.00000000E+00  0.00000000E+00
  0.00000000E+00  0.00000000E+00  0.00000000E+00
  0.00000000E+00  0.00000000E+00  0.00000000E+00
  0.00000000E+00  0.00000000E+00  0.00000000E+00
  0.00000000E+00  0.00000000E+00  0.00000000E+00
  0.00000000E+00  0.00000000E+00  0.00000000E+00
  0.00000000E+00  0.00000000E+00  0.00000000E+00
  0.00000000E+00  0.00000000E+00  0.00000000E+00
  0.00000000E+00  0.00000000E+00  0.00000000E+00
  0.00000000E+00  0.00000000E+00  0.00000000E+00
  0.00000000E+00  0.00000000E+00  0.00000000E+00
  0.00000000E+00  0.00000000E+00  0.00000000E+00
  0.00000000E+00  0.00000000E+00  0.00000000E+00
  0.00000000E+00  0.00000000E+00  0.00000000E+00
  0.00000000E+00  0.00000000E+00  0.00000000E+00
  0.00000000E+00  0.00000000E+00  0.00000000E+00
  0.00000000E+00  0.00000000E+00  0.00000000E+00
  0.00000000E+00  0.00000000E+00  0.00000000E+00
  0.00000000E+00  0.00000000E+00  0.00000000E+00
  0.00000000E+00  0.00000000E+00  0.00000000E+00
  0.00000000E+00  0.00000000E+00  0.00000000E+00
  0.00000000E+00  0.00000000E+00  0.00000000E+00
  0.00000000E+00  0.00000000E+00  0.00000000E+00
  0.00000000E+00  0.00000000E+00  0.00000000E+00
  0.00000000E+00  0.00000000E+00  0.00000000E+00
  0.00000000E+00  0.00000000E+00  0.00000000E+00
  0.00000000E+00  0.00000000E+00  0.00000000E+00
  0.00000000E+00  0.00000000E+00  0.00000000E+00
  0.00000000E+00  0.00000000E+00  0.00000000E+00
  0.00000000E+00  0.00000000E+00  0.00000000E+00
  0.00000000E+00  0.00000000E+00  0.00000000E+00
  0.00000000E+00  0.00000000E+00  0.00000000E+00
  0.00000000E+00  0.00000000E+00  0.00000000E+00
  0.00000000E+00  0.00000000E+00  0.00000000E+00
  0.00000000E+00  0.00000000E+00  0.00000000E+00
  0.00000000E+00  0.00000000E+00  0.00000000E+00
  0.00000000E+00  0.00000000E+00  0.00000000E+00
  0.00000000E+00  0.00000000E+00  0.00000000E+00
  0.00000000E+00  0.00000000E+00  0.00000000E+00
  0.00000000E+00  0.00000000E+00  0.00000000E+00
  0.00000000E+00  0.00000000E+00  0.00000000E+00
  0.00000000E+00  0.00000000E+00  0.00000000E+00
  0.00000000E+00  0.00000000E+00  0.00000000E+00
  0.00000000E+00  0.00000000E+00  0.00000000E+00
