Pt21, -97.60888685 <s> Ag </s>          
   1.00000000000000     
    20.9208117685739303    0.0000000000000000    0.0000000000000000
     0.0000000000000000   20.9208117685739303    0.0000000000000000
     0.0000000000000000    0.0000000000000000   20.9208117685739303
   Ag
    21
Direct
  0.6338888095892310  0.4857815861394867  0.6800215391154061
  0.6546789826441138  0.5463153463839068  0.5638964601642782
  0.5681260060060214  0.4288400060671259  0.5841197708604272
  0.7225676077128180  0.6628079703355503  0.5398152938173185
  0.5771655366779876  0.3583972481183549  0.4716972546409510
  0.5976078202091569  0.6652125607125023  0.5751631294335476
  0.6339956191084264  0.6164381621133599  0.4515775784875204
  0.3667285407686237  0.4069483008308585  0.4222612291446990
  0.5335997465328061  0.5648043288516609  0.3739779818356705
  0.5107778887658990  0.5998242136573964  0.5020714308770884
  0.5363655844371565  0.5593874261256162  0.6301644271974057
  0.4489653171309202  0.4568158019514073  0.6319594706931539
  0.6039119818761743  0.4855915949418631  0.4491007883025227
  0.4139863273179867  0.5799741165298146  0.5929633099125161
  0.3855061034577633  0.6398225193620299  0.4771164224429050
  0.4238135394659472  0.5234992700823808  0.4343186110829897
  0.4599594389736439  0.4019854970290602  0.5116983890430293
  0.6879832801623096  0.4250502735499687  0.5286913934207225
  0.2893263541510178  0.5917656366837107  0.5574520121302273
  0.3510783242840173  0.4757959311498385  0.5380528330579760
  0.5014575869387332  0.4285203800548700  0.3825179229740736
 
  0.00000000E+00  0.00000000E+00  0.00000000E+00
  0.00000000E+00  0.00000000E+00  0.00000000E+00
  0.00000000E+00  0.00000000E+00  0.00000000E+00
  0.00000000E+00  0.00000000E+00  0.00000000E+00
  0.00000000E+00  0.00000000E+00  0.00000000E+00
  0.00000000E+00  0.00000000E+00  0.00000000E+00
  0.00000000E+00  0.00000000E+00  0.00000000E+00
  0.00000000E+00  0.00000000E+00  0.00000000E+00
  0.00000000E+00  0.00000000E+00  0.00000000E+00
  0.00000000E+00  0.00000000E+00  0.00000000E+00
  0.00000000E+00  0.00000000E+00  0.00000000E+00
  0.00000000E+00  0.00000000E+00  0.00000000E+00
  0.00000000E+00  0.00000000E+00  0.00000000E+00
  0.00000000E+00  0.00000000E+00  0.00000000E+00
  0.00000000E+00  0.00000000E+00  0.00000000E+00
  0.00000000E+00  0.00000000E+00  0.00000000E+00
  0.00000000E+00  0.00000000E+00  0.00000000E+00
  0.00000000E+00  0.00000000E+00  0.00000000E+00
  0.00000000E+00  0.00000000E+00  0.00000000E+00
  0.00000000E+00  0.00000000E+00  0.00000000E+00
  0.00000000E+00  0.00000000E+00  0.00000000E+00
