Ag12, -915.0 <s> Ag </s>                
   1.00000000000000     
    20.1148190000000007    0.0000000000000000    0.0000000000000000
     0.0000000000000000   20.1148190000000007    0.0000000000000000
     0.0000000000000000    0.0000000000000000   20.1148190000000007
   Ag
    12
Direct
  0.4288998264682515  0.5677136920736838  0.5585098256723149
  0.5711001735317487  0.5677136920736838  0.5585098256723149
  0.5000000000000000  0.5678336046094502  0.4327196715016867
  0.6226781470268092  0.5000000000000000  0.4495865293758597
  0.5711001735317487  0.4322863079263161  0.5585098256723149
  0.4288998264682515  0.4322863079263161  0.5585098256723149
  0.5000000000000000  0.4321663953905498  0.4327196715016867
  0.5000000000000000  0.5664206491353179  0.6746671942609023
  0.4302524942588517  0.5000000000000000  0.3260069535169356
  0.3773218529731908  0.5000000000000000  0.4495865293758597
  0.5697475057411485  0.5000000000000000  0.3260069535169356
  0.5000000000000000  0.4335793508646821  0.6746671942609023
 
  0.00000000E+00  0.00000000E+00  0.00000000E+00
  0.00000000E+00  0.00000000E+00  0.00000000E+00
  0.00000000E+00  0.00000000E+00  0.00000000E+00
  0.00000000E+00  0.00000000E+00  0.00000000E+00
  0.00000000E+00  0.00000000E+00  0.00000000E+00
  0.00000000E+00  0.00000000E+00  0.00000000E+00
  0.00000000E+00  0.00000000E+00  0.00000000E+00
  0.00000000E+00  0.00000000E+00  0.00000000E+00
  0.00000000E+00  0.00000000E+00  0.00000000E+00
  0.00000000E+00  0.00000000E+00  0.00000000E+00
  0.00000000E+00  0.00000000E+00  0.00000000E+00
  0.00000000E+00  0.00000000E+00  0.00000000E+00
