Ti12, -71.69850164 <s> Pd </s>          
   1.00000000000000     
    18.4999996770839097    0.0000000000000000    0.0000000000000000
     0.0000000000000000   18.4999996770839097    0.0000000000000000
     0.0000000000000000    0.0000000000000000   18.4999996770839097
   Pd
    12
Direct
  0.6087591066729037  0.5709298396272768  0.5199564812390268
  0.5801475146528609  0.5358821029499420  0.6512631957284589
  0.6207606296623679  0.4708248401865641  0.4209048615566822
  0.4480256219892640  0.5250717934235933  0.6065164543104637
  0.4846022032228204  0.5252867301130981  0.4730963690648330
  0.5641466999733765  0.4355885054696498  0.5543348846864212
  0.5136040568275374  0.3773106621594327  0.4326984874267527
  0.4985116328941480  0.4841681879266591  0.3381852147416910
  0.4206286739734951  0.4016243412622957  0.5416432553241040
  0.3856243036404391  0.5694602293504953  0.3854143601820476
  0.3378962024971058  0.5162262574171494  0.5134524238698096
  0.3804741075661865  0.4307968757532942  0.4049180619671394
 
  0.00000000E+00  0.00000000E+00  0.00000000E+00
  0.00000000E+00  0.00000000E+00  0.00000000E+00
  0.00000000E+00  0.00000000E+00  0.00000000E+00
  0.00000000E+00  0.00000000E+00  0.00000000E+00
  0.00000000E+00  0.00000000E+00  0.00000000E+00
  0.00000000E+00  0.00000000E+00  0.00000000E+00
  0.00000000E+00  0.00000000E+00  0.00000000E+00
  0.00000000E+00  0.00000000E+00  0.00000000E+00
  0.00000000E+00  0.00000000E+00  0.00000000E+00
  0.00000000E+00  0.00000000E+00  0.00000000E+00
  0.00000000E+00  0.00000000E+00  0.00000000E+00
  0.00000000E+00  0.00000000E+00  0.00000000E+00
