Ti10, -59.03778513 <s> Pd </s>          
   1.00000000000000     
    17.6588546071805510    0.0000000000000000    0.0000000000000000
     0.0000000000000000   17.6588546071805510    0.0000000000000000
     0.0000000000000000    0.0000000000000000   17.6588546071805510
   Pd
    10
Direct
  0.6087315562122629  0.4860610667347605  0.5867588214778271
  0.4777501521710469  0.4087016017373539  0.6032254114096930
  0.4835815462554593  0.5317342967147395  0.5196623697933445
  0.6107952191580470  0.5342958249040908  0.4421561155151236
  0.3679570021206715  0.5328573848813077  0.4250143944042269
  0.3504865905171146  0.4859274938054886  0.5688250973885494
  0.4908168127098781  0.6184611058013568  0.3989401891524286
  0.4096441858064302  0.3940910002408584  0.4690589599380496
  0.4947774044326626  0.4742837631492839  0.3664116215383121
  0.5646388864261136  0.3945901488638248  0.4795513518216711
 
  0.00000000E+00  0.00000000E+00  0.00000000E+00
  0.00000000E+00  0.00000000E+00  0.00000000E+00
  0.00000000E+00  0.00000000E+00  0.00000000E+00
  0.00000000E+00  0.00000000E+00  0.00000000E+00
  0.00000000E+00  0.00000000E+00  0.00000000E+00
  0.00000000E+00  0.00000000E+00  0.00000000E+00
  0.00000000E+00  0.00000000E+00  0.00000000E+00
  0.00000000E+00  0.00000000E+00  0.00000000E+00
  0.00000000E+00  0.00000000E+00  0.00000000E+00
  0.00000000E+00  0.00000000E+00  0.00000000E+00
