Pt9, -37.04216213 <s> Ag </s>
  1.00000000000000
    18.35141575285890     0.00000000000000     0.00000000000000
     0.00000000000000    18.35141575285890     0.00000000000000
     0.00000000000000     0.00000000000000    18.35141575285890
  Ag    
  9     
Direct
     0.68009226108966      0.52020346131462      0.55056785736379   
     0.59619950804916      0.46574404157636      0.65425688095127   
     0.57050918584236      0.58939415436746      0.49740456310792   
     0.56923491150626      0.42914927438803      0.51328962664532   
     0.48376734337344      0.37183266880537      0.41894526640596   
     0.48745643898109      0.53852777781466      0.60262440815064   
     0.44282401608323      0.50101990099182      0.45266521979808   
     0.45871796219761      0.64786822919293      0.43552392270792   
     0.37539432890186      0.59860994841075      0.54223238315986   
