Al10, -26.49869766 <s> Ag </s>          
   1.00000000000000     
    18.2391870378339718    0.0000000000000000    0.0000000000000000
     0.0000000000000000   18.2391870378339718    0.0000000000000000
     0.0000000000000000    0.0000000000000000   18.2391870378339718
   Ag
    10
Direct
  0.5636475393199518  0.5710947818526506  0.6631000597085475
  0.5828359938529388  0.5110426271518307  0.5294641851566979
  0.3333855536609747  0.5103873586720340  0.5855633330627867
  0.4672573963987006  0.4610381609175960  0.6249312266424241
  0.6635328705680763  0.5563297344834339  0.3608512801930104
  0.5239210779960501  0.3690901054875724  0.5136396191351338
  0.4313612594488490  0.4826767218023349  0.4700566910230961
  0.4566704282947995  0.6027881558911332  0.5547440330237521
  0.5653553693481754  0.4522026173062841  0.3920218102183597
  0.5272848707420579  0.5985879629274535  0.4191883467725006
 
  0.00000000E+00  0.00000000E+00  0.00000000E+00
  0.00000000E+00  0.00000000E+00  0.00000000E+00
  0.00000000E+00  0.00000000E+00  0.00000000E+00
  0.00000000E+00  0.00000000E+00  0.00000000E+00
  0.00000000E+00  0.00000000E+00  0.00000000E+00
  0.00000000E+00  0.00000000E+00  0.00000000E+00
  0.00000000E+00  0.00000000E+00  0.00000000E+00
  0.00000000E+00  0.00000000E+00  0.00000000E+00
  0.00000000E+00  0.00000000E+00  0.00000000E+00
  0.00000000E+00  0.00000000E+00  0.00000000E+00
