Tl13, -23.46153255 <s> Cu </s>          
   1.00000000000000     
    20.0906342921859995    0.0000000000000000    0.0000000000000000
     0.0000000000000000   20.0906342921859995    0.0000000000000000
     0.0000000000000000    0.0000000000000000   20.0906342921859995
   Cu
    13
Direct
  0.4773959506898524  0.3769484099521326  0.4508039278508144
  0.3824962101831619  0.5387374638738470  0.3552905424864836
  0.2848125058297948  0.4648364237287376  0.3363224779165648
  0.4814084959864645  0.4662041872439314  0.3684219318343195
  0.4483539343710379  0.3456512765319327  0.3408536559140822
  0.3934190163425169  0.4393921045317948  0.2894619099108484
  0.3709106151772106  0.3135108504890382  0.4385118526563062
  0.2730480193742280  0.2585807755916916  0.3903924996308896
  0.2645083615502208  0.3761275171388083  0.4173122487811165
  0.4793618881011945  0.2592555077960282  0.4205115207899113
  0.3737481500905241  0.4319977528507264  0.4113360453345070
  0.3259637236609676  0.3445522794009285  0.3215446331561887
  0.3848467730140231  0.2389076387018944  0.3477939627625082
 
  0.00000000E+00  0.00000000E+00  0.00000000E+00
  0.00000000E+00  0.00000000E+00  0.00000000E+00
  0.00000000E+00  0.00000000E+00  0.00000000E+00
  0.00000000E+00  0.00000000E+00  0.00000000E+00
  0.00000000E+00  0.00000000E+00  0.00000000E+00
  0.00000000E+00  0.00000000E+00  0.00000000E+00
  0.00000000E+00  0.00000000E+00  0.00000000E+00
  0.00000000E+00  0.00000000E+00  0.00000000E+00
  0.00000000E+00  0.00000000E+00  0.00000000E+00
  0.00000000E+00  0.00000000E+00  0.00000000E+00
  0.00000000E+00  0.00000000E+00  0.00000000E+00
  0.00000000E+00  0.00000000E+00  0.00000000E+00
  0.00000000E+00  0.00000000E+00  0.00000000E+00
