Cu25, -69.04171983 <s> Ag </s>          
   1.00000000000000     
    19.9971174277216797    0.0000000000000000    0.0000000000000000
     0.0000000000000000   19.9971174277216797    0.0000000000000000
     0.0000000000000000    0.0000000000000000   19.9971174277216797
   Ag
    25
Direct
  0.7483067062445911  0.7546729565365768  0.5389510587281007
  0.6137232941762971  0.7676329819681221  0.5061783271984777
  0.6482652076048305  0.7533964583739651  0.6370646973258108
  0.7419071494009022  0.6377543562411245  0.6109942706253727
  0.6859634438540326  0.6445610398483269  0.4782508771038800
  0.5375266451412082  0.6595335118887126  0.4653915586001039
  0.5064512226869636  0.7263716201692405  0.5912729498918036
  0.5647807735111873  0.6707224634724335  0.7139603079219662
  0.6889928467857263  0.5205318090358777  0.5474161515969580
  0.6579006042573747  0.5567765361482635  0.6917154825314696
  0.5946210319979832  0.6222884753926367  0.5857253053303157
  0.7059371727684942  0.6832611259655009  0.7377682058515285
  0.3831026951709780  0.3744430720669476  0.5125811741574118
  0.3618133430663293  0.5085145879756594  0.4887074621845228
  0.4128195501317415  0.4706931469434707  0.6106547813931268
  0.5099618834942478  0.3669453198604091  0.5665756215146031
  0.4889600628147464  0.4191107551296947  0.4356794316281746
  0.4658361396587645  0.5551566325534749  0.4136228574263293
  0.4397782968817000  0.6067999310308759  0.5574439694825315
  0.5155910951786009  0.5455555779375479  0.6737768127220968
  0.6233709341173406  0.4128708613712608  0.4907635247020047
  0.6153491658282415  0.4395336103286832  0.6337273483720970
  0.5314164662753909  0.5064252322486071  0.5356026125633928
  0.4990782822354523  0.4083164267614930  0.7013847631564303
  0.6102041205038987  0.5397896445381193  0.4264485817785004
 
  0.00000000E+00  0.00000000E+00  0.00000000E+00
  0.00000000E+00  0.00000000E+00  0.00000000E+00
  0.00000000E+00  0.00000000E+00  0.00000000E+00
  0.00000000E+00  0.00000000E+00  0.00000000E+00
  0.00000000E+00  0.00000000E+00  0.00000000E+00
  0.00000000E+00  0.00000000E+00  0.00000000E+00
  0.00000000E+00  0.00000000E+00  0.00000000E+00
  0.00000000E+00  0.00000000E+00  0.00000000E+00
  0.00000000E+00  0.00000000E+00  0.00000000E+00
  0.00000000E+00  0.00000000E+00  0.00000000E+00
  0.00000000E+00  0.00000000E+00  0.00000000E+00
  0.00000000E+00  0.00000000E+00  0.00000000E+00
  0.00000000E+00  0.00000000E+00  0.00000000E+00
  0.00000000E+00  0.00000000E+00  0.00000000E+00
  0.00000000E+00  0.00000000E+00  0.00000000E+00
  0.00000000E+00  0.00000000E+00  0.00000000E+00
  0.00000000E+00  0.00000000E+00  0.00000000E+00
  0.00000000E+00  0.00000000E+00  0.00000000E+00
  0.00000000E+00  0.00000000E+00  0.00000000E+00
  0.00000000E+00  0.00000000E+00  0.00000000E+00
  0.00000000E+00  0.00000000E+00  0.00000000E+00
  0.00000000E+00  0.00000000E+00  0.00000000E+00
  0.00000000E+00  0.00000000E+00  0.00000000E+00
  0.00000000E+00  0.00000000E+00  0.00000000E+00
  0.00000000E+00  0.00000000E+00  0.00000000E+00
