Pt10, -41.6542407 <s> Ni </s>           
   1.00000000000000     
    19.1529689057190389    0.0000000000000000    0.0000000000000000
     0.0000000000000000   19.1529689057190389    0.0000000000000000
     0.0000000000000000    0.0000000000000000   19.1529689057190389
   Ni
    10
Direct
  0.5750512816177487  0.5092139497932443  0.4240011006563302
  0.4651621727494817  0.4853590079514712  0.5419057749721661
  0.4611353884255566  0.6009756659987908  0.4491302800593366
  0.3376639567264325  0.5286732984168556  0.4596691008419219
  0.4455625293517008  0.4634251487974028  0.3758003512919771
  0.6133406400907837  0.4734665877685439  0.5508153532639896
  0.3045426319262396  0.4065570494590904  0.3760394482445805
  0.3765574255504858  0.3827071685023461  0.5013182979625171
  0.5282823846846681  0.3660527842990144  0.4678287780954998
  0.4152461070844765  0.3109966137948912  0.3821737131198454
 
  0.00000000E+00  0.00000000E+00  0.00000000E+00
  0.00000000E+00  0.00000000E+00  0.00000000E+00
  0.00000000E+00  0.00000000E+00  0.00000000E+00
  0.00000000E+00  0.00000000E+00  0.00000000E+00
  0.00000000E+00  0.00000000E+00  0.00000000E+00
  0.00000000E+00  0.00000000E+00  0.00000000E+00
  0.00000000E+00  0.00000000E+00  0.00000000E+00
  0.00000000E+00  0.00000000E+00  0.00000000E+00
  0.00000000E+00  0.00000000E+00  0.00000000E+00
  0.00000000E+00  0.00000000E+00  0.00000000E+00
