Pt10, -41.6542407 <s> Cu </s>           
   1.00000000000000     
    19.1529689057190389    0.0000000000000000    0.0000000000000000
     0.0000000000000000   19.1529689057190389    0.0000000000000000
     0.0000000000000000    0.0000000000000000   19.1529689057190389
   Cu
    10
Direct
  0.4832388484165128  0.4796671301189152  0.4142126257621906
  0.5348962993454187  0.5247807611845834  0.5221300019675786
  0.4516035838834312  0.5911219497132684  0.4523253004240232
  0.4086855068159023  0.4938285028415410  0.5234422258529164
  0.4109386201479553  0.4243966791611745  0.3277170377267876
  0.5799398552176003  0.4503806657559794  0.6074188286672402
  0.3576637789187051  0.5063089514824862  0.4065395033015556
  0.3928606254407387  0.3929904562418650  0.4520309049452281
  0.5007311841504075  0.4030083708586219  0.5219468116844611
  0.5008865034305180  0.3588326791593764  0.3985478845935681
 
  0.00000000E+00  0.00000000E+00  0.00000000E+00
  0.00000000E+00  0.00000000E+00  0.00000000E+00
  0.00000000E+00  0.00000000E+00  0.00000000E+00
  0.00000000E+00  0.00000000E+00  0.00000000E+00
  0.00000000E+00  0.00000000E+00  0.00000000E+00
  0.00000000E+00  0.00000000E+00  0.00000000E+00
  0.00000000E+00  0.00000000E+00  0.00000000E+00
  0.00000000E+00  0.00000000E+00  0.00000000E+00
  0.00000000E+00  0.00000000E+00  0.00000000E+00
  0.00000000E+00  0.00000000E+00  0.00000000E+00
