Pt10, -41.6542407 <s> Cu </s>
  1.00000000000000
    19.15296890571904     0.00000000000000     0.00000000000000
     0.00000000000000    19.15296890571904     0.00000000000000
     0.00000000000000     0.00000000000000    19.15296890571904
  Cu    
  10    
Direct
     0.49735111182279      0.48713331378883      0.42891731533239   
     0.53604835567776      0.54457249304439      0.52553493287274   
     0.44340238840298      0.61411027078082      0.52799389158199   
     0.39162772425194      0.53188414915620      0.46263794553248   
     0.44204122991690      0.41906658907024      0.34666496432894   
     0.58957750662042      0.45058164175873      0.56672819230862   
     0.33515671773270      0.46041887078314      0.38549076416639   
     0.40015610248856      0.40720590439920      0.47496430458277   
     0.52220336929749      0.38899135831429      0.49328159408960   
     0.46388029955565      0.32135155542197      0.41409722012963   
