Ag12, -926.0 <s> Ni </s>                
   1.00000000000000     
    20.7233699999999992    0.0000000000000000    0.0000000000000000
     0.0000000000000000   20.7233699999999992    0.0000000000000000
     0.0000000000000000    0.0000000000000000   20.7233699999999992
   Ni
    12
Direct
  0.5000000000000000  0.6536320626168620  0.4277599164597277
  0.5555694680679136  0.4427129087575530  0.4404951112707021
  0.5555694680679136  0.5572870912424474  0.4404951112707021
  0.5545922507405771  0.5000000000000000  0.5404142069898650
  0.5000000000000000  0.6048033555796680  0.5259997356617249
  0.4444305319320866  0.5572870912424474  0.4404951112707021
  0.4444305319320866  0.4427129087575530  0.4404951112707021
  0.4454077492594229  0.5000000000000000  0.5404142069898650
  0.5000000000000000  0.3463679373831381  0.4277599164597277
  0.5000000000000000  0.4439283649190647  0.6248359183472714
  0.5000000000000000  0.3951966444203319  0.5259997356617249
  0.5000000000000000  0.5560716350809353  0.6248359183472714
 
  0.00000000E+00  0.00000000E+00  0.00000000E+00
  0.00000000E+00  0.00000000E+00  0.00000000E+00
  0.00000000E+00  0.00000000E+00  0.00000000E+00
  0.00000000E+00  0.00000000E+00  0.00000000E+00
  0.00000000E+00  0.00000000E+00  0.00000000E+00
  0.00000000E+00  0.00000000E+00  0.00000000E+00
  0.00000000E+00  0.00000000E+00  0.00000000E+00
  0.00000000E+00  0.00000000E+00  0.00000000E+00
  0.00000000E+00  0.00000000E+00  0.00000000E+00
  0.00000000E+00  0.00000000E+00  0.00000000E+00
  0.00000000E+00  0.00000000E+00  0.00000000E+00
  0.00000000E+00  0.00000000E+00  0.00000000E+00
