Ag12, -926.0 <s> Ni </s>                
   1.00000000000000     
    20.7233699999999992    0.0000000000000000    0.0000000000000000
     0.0000000000000000   20.7233699999999992    0.0000000000000000
     0.0000000000000000    0.0000000000000000   20.7233699999999992
   Ni
    12
Direct
  0.5000000000000000  0.6793179520133591  0.4075577981650693
  0.5709922325297617  0.4290712327787222  0.4288860921081251
  0.5709922325297617  0.5709287672212781  0.4288860921081251
  0.5729600263306999  0.5000000000000000  0.5486345974073157
  0.5000000000000000  0.6345980636695420  0.5381929964860684
  0.4290077674702385  0.5709287672212781  0.4288860921081251
  0.4290077674702385  0.4290712327787222  0.4288860921081251
  0.4270399736693002  0.5000000000000000  0.5486345974073157
  0.5000000000000000  0.3206820479866410  0.4075577981650693
  0.5000000000000000  0.4343921965361429  0.6478424237252963
  0.5000000000000000  0.3654019363304580  0.5381929964860684
  0.5000000000000000  0.5656078034638569  0.6478424237252963
 
  0.00000000E+00  0.00000000E+00  0.00000000E+00
  0.00000000E+00  0.00000000E+00  0.00000000E+00
  0.00000000E+00  0.00000000E+00  0.00000000E+00
  0.00000000E+00  0.00000000E+00  0.00000000E+00
  0.00000000E+00  0.00000000E+00  0.00000000E+00
  0.00000000E+00  0.00000000E+00  0.00000000E+00
  0.00000000E+00  0.00000000E+00  0.00000000E+00
  0.00000000E+00  0.00000000E+00  0.00000000E+00
  0.00000000E+00  0.00000000E+00  0.00000000E+00
  0.00000000E+00  0.00000000E+00  0.00000000E+00
  0.00000000E+00  0.00000000E+00  0.00000000E+00
  0.00000000E+00  0.00000000E+00  0.00000000E+00
