Pt12, -52.08894605 <s> Ag </s>          
   1.00000000000000     
    18.8898027349883115    0.0000000000000000    0.0000000000000000
     0.0000000000000000   18.8898027349883115    0.0000000000000000
     0.0000000000000000    0.0000000000000000   18.8898027349883115
   Ag
    12
Direct
  0.6374424498564556  0.5985278018257461  0.4494059925373826
  0.4689241998569507  0.4063188271717783  0.4253701089234256
  0.6795476252510356  0.6616954900831605  0.5750170335864255
  0.5379062588606790  0.6733790492116546  0.5378952065618031
  0.5863902710012131  0.4373508278767186  0.6741216579947672
  0.3879861199766503  0.3423519213165421  0.5297013448208273
  0.4017073828530964  0.6218717824174603  0.5419911791315365
  0.5888597518010243  0.4780168378583693  0.3837936912683335
  0.4910849250913227  0.4371080749464873  0.5696084968551248
  0.3656464286959836  0.4853741077411066  0.5063333443429673
  0.5954944321878884  0.5429645974243122  0.5806419226177764
  0.4944621436777260  0.5506574763947681  0.4612686725686390
 
  0.00000000E+00  0.00000000E+00  0.00000000E+00
  0.00000000E+00  0.00000000E+00  0.00000000E+00
  0.00000000E+00  0.00000000E+00  0.00000000E+00
  0.00000000E+00  0.00000000E+00  0.00000000E+00
  0.00000000E+00  0.00000000E+00  0.00000000E+00
  0.00000000E+00  0.00000000E+00  0.00000000E+00
  0.00000000E+00  0.00000000E+00  0.00000000E+00
  0.00000000E+00  0.00000000E+00  0.00000000E+00
  0.00000000E+00  0.00000000E+00  0.00000000E+00
  0.00000000E+00  0.00000000E+00  0.00000000E+00
  0.00000000E+00  0.00000000E+00  0.00000000E+00
  0.00000000E+00  0.00000000E+00  0.00000000E+00
