In10, -19.64721617 <s> Ag </s>          
   1.00000000000000     
    20.9499474116197391    0.0000000000000000    0.0000000000000000
     0.0000000000000000   20.9499474116197391    0.0000000000000000
     0.0000000000000000    0.0000000000000000   20.9499474116197391
   Ag
    10
Direct
  0.5162951774450661  0.4914552452603473  0.5211802583691494
  0.3832303239689736  0.4074459680205038  0.3785281365509974
  0.3758625831205933  0.5356715945835973  0.3432870506956576
  0.5094671624105089  0.4019344577019552  0.4209830459173602
  0.4686849278392629  0.4618198329548520  0.2916762107557460
  0.4297159658992129  0.4386127450980979  0.6073174257118836
  0.3906823619522868  0.4975658330478225  0.4781031761300554
  0.4049143357100178  0.3666262337311181  0.4982009617965772
  0.4955370138457909  0.5328780158517432  0.4014504972356931
  0.5237416396883035  0.3641215656300147  0.5574047287168966
 
  0.00000000E+00  0.00000000E+00  0.00000000E+00
  0.00000000E+00  0.00000000E+00  0.00000000E+00
  0.00000000E+00  0.00000000E+00  0.00000000E+00
  0.00000000E+00  0.00000000E+00  0.00000000E+00
  0.00000000E+00  0.00000000E+00  0.00000000E+00
  0.00000000E+00  0.00000000E+00  0.00000000E+00
  0.00000000E+00  0.00000000E+00  0.00000000E+00
  0.00000000E+00  0.00000000E+00  0.00000000E+00
  0.00000000E+00  0.00000000E+00  0.00000000E+00
  0.00000000E+00  0.00000000E+00  0.00000000E+00
