Al10, -26.49869766 <s> Cu </s>          
   1.00000000000000     
    18.2391870378339718    0.0000000000000000    0.0000000000000000
     0.0000000000000000   18.2391870378339718    0.0000000000000000
     0.0000000000000000    0.0000000000000000   18.2391870378339718
   Cu
    10
Direct
  0.5105036421423639  0.5187015686887689  0.5688573462646999
  0.5226356806429964  0.4498955827870292  0.4607267944822351
  0.3033929668406224  0.4532698645222940  0.5315518590318871
  0.4263413190048189  0.4177964883317603  0.5512414046476265
  0.5867649619444286  0.4805807166363430  0.3441339987909228
  0.4619391259993314  0.3296373626408269  0.4566354455215230
  0.3799022141022167  0.4286359303271186  0.4236378429177164
  0.4027472363044872  0.5362781846255987  0.4923663946377143
  0.4853497686154310  0.3998991632966371  0.3456742199206820
  0.4630798628639292  0.5280179995772442  0.3745447550909577
 
  0.00000000E+00  0.00000000E+00  0.00000000E+00
  0.00000000E+00  0.00000000E+00  0.00000000E+00
  0.00000000E+00  0.00000000E+00  0.00000000E+00
  0.00000000E+00  0.00000000E+00  0.00000000E+00
  0.00000000E+00  0.00000000E+00  0.00000000E+00
  0.00000000E+00  0.00000000E+00  0.00000000E+00
  0.00000000E+00  0.00000000E+00  0.00000000E+00
  0.00000000E+00  0.00000000E+00  0.00000000E+00
  0.00000000E+00  0.00000000E+00  0.00000000E+00
  0.00000000E+00  0.00000000E+00  0.00000000E+00
