Al10, -26.49869766 <s> Cu </s>
  1.00000000000000
    18.23918703783397     0.00000000000000     0.00000000000000
     0.00000000000000    18.23918703783397     0.00000000000000
     0.00000000000000     0.00000000000000    18.23918703783397
  Cu    
  10    
Direct
     0.45235339337280      0.50849464282387      0.57082226483520   
     0.51578910153979      0.45454268082063      0.47442774590727   
     0.33615868889218      0.46413056181959      0.54779452492826   
     0.43474408690079      0.37695293456884      0.55085636620168   
     0.57180243322554      0.49282074136582      0.35988147384362   
     0.47009807064887      0.31515516579511      0.44806103936920   
     0.39202629056662      0.44136277816576      0.43251514877132   
     0.43418553066719      0.57229635392128      0.46431163417448   
     0.48620844532548      0.39306347578404      0.35063056440041   
     0.44929073732135      0.52389352636868      0.35006929887452   
