Ti12, -71.99198071 <s> Cu </s>          
   1.00000000000000     
    19.2276706648588487    0.0000000000000000    0.0000000000000000
     0.0000000000000000   19.2276706648588487    0.0000000000000000
     0.0000000000000000    0.0000000000000000   19.2276706648588487
   Cu
    12
Direct
  0.5299957774738885  0.4219664265916691  0.3545986286363109
  0.5331993797076590  0.3767781588240379  0.4710343223171325
  0.3737804277434545  0.5295627824664580  0.4374751378741346
  0.5023003761522282  0.5016664691593964  0.4645050096519416
  0.4644542128099085  0.5313334030415224  0.3512653061058296
  0.4574617460368277  0.6193238992301199  0.4461946536757669
  0.4237071316778280  0.3253937822831253  0.5002465423186711
  0.3581918187622710  0.4364041274567851  0.5174551764593711
  0.4825013095764111  0.3049387004785563  0.3849177653922352
  0.4718499718151909  0.4295403254428399  0.5647390327729714
  0.4198471618150171  0.4129056304438143  0.4086735197288709
  0.4212450891486780  0.5481279224672116  0.5504972892805285
 
  0.00000000E+00  0.00000000E+00  0.00000000E+00
  0.00000000E+00  0.00000000E+00  0.00000000E+00
  0.00000000E+00  0.00000000E+00  0.00000000E+00
  0.00000000E+00  0.00000000E+00  0.00000000E+00
  0.00000000E+00  0.00000000E+00  0.00000000E+00
  0.00000000E+00  0.00000000E+00  0.00000000E+00
  0.00000000E+00  0.00000000E+00  0.00000000E+00
  0.00000000E+00  0.00000000E+00  0.00000000E+00
  0.00000000E+00  0.00000000E+00  0.00000000E+00
  0.00000000E+00  0.00000000E+00  0.00000000E+00
  0.00000000E+00  0.00000000E+00  0.00000000E+00
  0.00000000E+00  0.00000000E+00  0.00000000E+00
