Pt10, -41.88218608 <s> Pd </s>          
   1.00000000000000     
    18.0213684173244815    0.0000000000000000    0.0000000000000000
     0.0000000000000000   18.0213684173244815    0.0000000000000000
     0.0000000000000000    0.0000000000000000   18.0213684173244815
   Pd
    10
Direct
  0.4162291589801248  0.3820398234885449  0.5853245581553366
  0.4695046325488328  0.4952138941598918  0.3849764335314517
  0.5140957689559463  0.4693193429598886  0.6393691631975410
  0.5143713599777933  0.3988071729477682  0.4820104983541400
  0.6230026415252997  0.4009593930867041  0.5776535861322405
  0.5740380376074977  0.5247355286059432  0.5160573221682958
  0.4238806779745272  0.5166863844094770  0.5297467066734390
  0.3593944917905199  0.5824095354797731  0.4176423490522933
  0.5922993106946974  0.5708014745018973  0.3818929135768582
  0.4873345252849308  0.6327508517656054  0.4598471872113470
 
  0.00000000E+00  0.00000000E+00  0.00000000E+00
  0.00000000E+00  0.00000000E+00  0.00000000E+00
  0.00000000E+00  0.00000000E+00  0.00000000E+00
  0.00000000E+00  0.00000000E+00  0.00000000E+00
  0.00000000E+00  0.00000000E+00  0.00000000E+00
  0.00000000E+00  0.00000000E+00  0.00000000E+00
  0.00000000E+00  0.00000000E+00  0.00000000E+00
  0.00000000E+00  0.00000000E+00  0.00000000E+00
  0.00000000E+00  0.00000000E+00  0.00000000E+00
  0.00000000E+00  0.00000000E+00  0.00000000E+00
