Ti46, -308.35236943 <s> Ag </s>         
   1.00000000000000     
    22.6502187735964995    0.0000000000000000    0.0000000000000000
     0.0000000000000000   22.6502187735964995    0.0000000000000000
     0.0000000000000000    0.0000000000000000   22.6502187735964995
   Ag
    46
Direct
  0.2989186455364197  0.5112356183900914  0.4386798733417483
  0.4710382227412927  0.4584439466941994  0.2712410104479850
  0.4022793660876000  0.3676731175442269  0.3228685282395853
  0.3812776979776787  0.4872975367379631  0.3502719792661425
  0.3106540253055260  0.4409301221981476  0.5408744821252535
  0.3335188722665078  0.3898902934997293  0.4246031824708793
  0.3475428004585148  0.5665224051910049  0.5399579557968847
  0.4795270804090205  0.5650635910535933  0.3369709278111445
  0.3962753084206678  0.5918342830556005  0.4239370278191451
  0.4525129874168928  0.3541044175553007  0.4339482244082389
  0.5265347162757333  0.3575022760411383  0.3253897976298915
  0.5913719951201717  0.4664661705394277  0.2999856441077366
  0.4127972680954077  0.4735134024154082  0.4759451710076882
  0.5761355539532105  0.3560667822036445  0.4441990626367324
  0.5103021920097983  0.6632257857536034  0.4196046324884005
  0.5145164549563401  0.4575314060487395  0.3930056024471208
  0.3247357345059977  0.3708366090603046  0.6407306753044566
  0.3487316034944263  0.4990148701867236  0.6451425732664348
  0.3734280820409793  0.3319689264902962  0.5294383347024043
  0.4358057573982784  0.6558468580965772  0.5230490376308452
  0.5097919628243588  0.5560443958813911  0.4683401751288629
  0.5956141589771994  0.5629736575237206  0.3783818937876928
  0.5379791706483238  0.7328134919012861  0.5223403548608515
  0.5027905083969065  0.3205124187054687  0.5411748410253888
  0.4284940001142283  0.4185829195464525  0.5967119159926849
  0.4691384678861636  0.7105276512164467  0.6260547467247246
  0.6296634327295193  0.6475931371412651  0.4624219898041366
  0.6475870832031426  0.4503995222880263  0.4097101081952806
  0.4628373467687764  0.5377357699975094  0.5798977537278256
  0.5253527153434028  0.4421416086835678  0.5185511714605932
  0.5601938320447192  0.6224966358731830  0.5643645038864643
  0.4374050127793546  0.3073532491555870  0.6437005523996578
  0.3969150260561534  0.6139425028427653  0.6467431924088497
  0.7113031565600949  0.5591354714083414  0.4170078904380898
  0.6255816717318314  0.5268010653068050  0.5074958195288127
  0.5870123788341859  0.7086655118049496  0.6566714412553246
  0.4695334055076961  0.4907470653853663  0.6912983292759367
  0.6678041363907267  0.7016287190952892  0.5658241555500939
  0.5416222085008838  0.3897762366231039  0.6366399603575414
  0.5773161648215714  0.5058082293718219  0.6235156397634870
  0.6381602611953225  0.4042820805144992  0.5444635166463178
  0.5189630702407546  0.6067590695393421  0.6795928521551463
  0.7240074188956180  0.5977610998936621  0.5343792897469855
  0.7363469213112985  0.4657131102325238  0.4965861453733607
  0.6524799765674613  0.6036709967548886  0.6438692112357707
  0.7004933692344449  0.4958932830084358  0.6091152011614707
 
  0.00000000E+00  0.00000000E+00  0.00000000E+00
  0.00000000E+00  0.00000000E+00  0.00000000E+00
  0.00000000E+00  0.00000000E+00  0.00000000E+00
  0.00000000E+00  0.00000000E+00  0.00000000E+00
  0.00000000E+00  0.00000000E+00  0.00000000E+00
  0.00000000E+00  0.00000000E+00  0.00000000E+00
  0.00000000E+00  0.00000000E+00  0.00000000E+00
  0.00000000E+00  0.00000000E+00  0.00000000E+00
  0.00000000E+00  0.00000000E+00  0.00000000E+00
  0.00000000E+00  0.00000000E+00  0.00000000E+00
  0.00000000E+00  0.00000000E+00  0.00000000E+00
  0.00000000E+00  0.00000000E+00  0.00000000E+00
  0.00000000E+00  0.00000000E+00  0.00000000E+00
  0.00000000E+00  0.00000000E+00  0.00000000E+00
  0.00000000E+00  0.00000000E+00  0.00000000E+00
  0.00000000E+00  0.00000000E+00  0.00000000E+00
  0.00000000E+00  0.00000000E+00  0.00000000E+00
  0.00000000E+00  0.00000000E+00  0.00000000E+00
  0.00000000E+00  0.00000000E+00  0.00000000E+00
  0.00000000E+00  0.00000000E+00  0.00000000E+00
  0.00000000E+00  0.00000000E+00  0.00000000E+00
  0.00000000E+00  0.00000000E+00  0.00000000E+00
  0.00000000E+00  0.00000000E+00  0.00000000E+00
  0.00000000E+00  0.00000000E+00  0.00000000E+00
  0.00000000E+00  0.00000000E+00  0.00000000E+00
  0.00000000E+00  0.00000000E+00  0.00000000E+00
  0.00000000E+00  0.00000000E+00  0.00000000E+00
  0.00000000E+00  0.00000000E+00  0.00000000E+00
  0.00000000E+00  0.00000000E+00  0.00000000E+00
  0.00000000E+00  0.00000000E+00  0.00000000E+00
  0.00000000E+00  0.00000000E+00  0.00000000E+00
  0.00000000E+00  0.00000000E+00  0.00000000E+00
  0.00000000E+00  0.00000000E+00  0.00000000E+00
  0.00000000E+00  0.00000000E+00  0.00000000E+00
  0.00000000E+00  0.00000000E+00  0.00000000E+00
  0.00000000E+00  0.00000000E+00  0.00000000E+00
  0.00000000E+00  0.00000000E+00  0.00000000E+00
  0.00000000E+00  0.00000000E+00  0.00000000E+00
  0.00000000E+00  0.00000000E+00  0.00000000E+00
  0.00000000E+00  0.00000000E+00  0.00000000E+00
  0.00000000E+00  0.00000000E+00  0.00000000E+00
  0.00000000E+00  0.00000000E+00  0.00000000E+00
  0.00000000E+00  0.00000000E+00  0.00000000E+00
  0.00000000E+00  0.00000000E+00  0.00000000E+00
  0.00000000E+00  0.00000000E+00  0.00000000E+00
  0.00000000E+00  0.00000000E+00  0.00000000E+00
