Al42, -132.64228737 <s> Ag </s>
  1.00000000000000
    22.35963094033851     0.00000000000000     0.00000000000000
     0.00000000000000    22.35963094033851     0.00000000000000
     0.00000000000000     0.00000000000000    22.35963094033851
  Ag    
  42    
Direct
     0.29855811928894      0.39818384522357      0.63607187904535   
     0.42289303275281      0.40289683362018      0.63457952148957   
     0.35866526765857      0.38868466823615      0.52993563146904   
     0.54160245723046      0.37564883392921      0.64222119935903   
     0.48451908952565      0.35475028348266      0.53190332158721   
     0.35231493089804      0.50031987376013      0.68152375381477   
     0.65831516031188      0.40287523637639      0.61575446569725   
     0.40006002491946      0.34277678783433      0.43010544487170   
     0.29831527030125      0.49705793417375      0.56084385582272   
     0.47401798303153      0.49518116890630      0.69997276492264   
     0.60917312602348      0.37802013408720      0.50506173547662   
     0.45396050629271      0.45974260512043      0.46978587495938   
     0.33444637090883      0.47047583812331      0.43623474165410   
     0.58994798622567      0.49706589181502      0.67397339756327   
     0.41152530172615      0.61010734402852      0.69594079946857   
     0.71102742989322      0.50646033028510      0.65148542342262   
     0.51900982536019      0.36505753976032      0.40994991333824   
     0.53447901908704      0.47339526259727      0.56609304952204   
     0.32235245854281      0.60839119771927      0.60716944914278   
     0.71724848935513      0.42053369318734      0.45200029621808   
     0.42058311780251      0.52377508069082      0.58200697130647   
     0.51608800732025      0.59157686878744      0.63256229187253   
     0.35920939689145      0.58279700862932      0.48904533596563   
     0.62475976268883      0.39888026887161      0.36879328636352   
     0.67164127313625      0.49979067313829      0.53462330802776   
     0.57994036796465      0.48834993856864      0.44980324899093   
     0.50065321331132      0.57761726875527      0.50204954448837   
     0.42842303102323      0.66023661308922      0.56608340362235   
     0.41034265480359      0.42467799787598      0.33997364176246   
     0.63500704720125      0.59343211237811      0.60834437208738   
     0.72796692245536      0.45477240706202      0.33317740192142   
     0.42026069545759      0.54734876166280      0.38629303552453   
     0.51900215591178      0.47427971000962      0.34129060357103   
     0.55759386301182      0.68249719279402      0.56032162456923   
     0.62405958803359      0.60509182028333      0.48613712714616   
     0.43740596640860      0.66242232251555      0.43213549145848   
     0.53515055997505      0.59281466921712      0.38104736990735   
     0.71136068438625      0.54394754410598      0.42209128323671   
     0.62825976522508      0.52711002348240      0.32878821183534   
     0.47511865793322      0.75976419077076      0.50291521560350   
     0.56127089292852      0.70155459507680      0.43380947309588   
     0.65088342455402      0.64571716857509      0.36975625272225   
