Ag12, -936.0 <s> Ni </s>                
   1.00000000000000     
    19.7729250000000008    0.0000000000000000    0.0000000000000000
     0.0000000000000000   19.7729250000000008    0.0000000000000000
     0.0000000000000000    0.0000000000000000   19.7729250000000008
   Ni
    12
Direct
  0.4206354378390229  0.5715910677359695  0.4610043556876890
  0.4206354378390229  0.4284089322640308  0.4610043556876890
  0.4110547516696001  0.5000000000000000  0.5840720343847758
  0.5000000000000000  0.3784438078626225  0.5795977600227922
  0.5793645621609769  0.4284089322640308  0.4610043556876890
  0.5793645621609769  0.5715910677359695  0.4610043556876890
  0.5889452483303997  0.5000000000000000  0.5840720343847758
  0.5000000000000000  0.6215561921373777  0.5795977600227922
  0.5000000000000000  0.6601887774689222  0.3966752731658589
  0.5000000000000000  0.5000000000000000  0.6817369517317666
  0.5000000000000000  0.5000000000000000  0.3535554827830213
  0.5000000000000000  0.3398112225310778  0.3966752731658589
 
  0.00000000E+00  0.00000000E+00  0.00000000E+00
  0.00000000E+00  0.00000000E+00  0.00000000E+00
  0.00000000E+00  0.00000000E+00  0.00000000E+00
  0.00000000E+00  0.00000000E+00  0.00000000E+00
  0.00000000E+00  0.00000000E+00  0.00000000E+00
  0.00000000E+00  0.00000000E+00  0.00000000E+00
  0.00000000E+00  0.00000000E+00  0.00000000E+00
  0.00000000E+00  0.00000000E+00  0.00000000E+00
  0.00000000E+00  0.00000000E+00  0.00000000E+00
  0.00000000E+00  0.00000000E+00  0.00000000E+00
  0.00000000E+00  0.00000000E+00  0.00000000E+00
  0.00000000E+00  0.00000000E+00  0.00000000E+00
