Ag13, -885.0 <s> Ag </s>                
   1.00000000000000     
    18.6213119999999996    0.0000000000000000    0.0000000000000000
     0.0000000000000000   18.6213119999999996    0.0000000000000000
     0.0000000000000000    0.0000000000000000   18.6213119999999996
   Ag
    13
Direct
  0.4237123613982858  0.4237123613982858  0.6113966177836476
  0.5000000000000000  0.6477546949619921  0.5000000000000000
  0.4237123613982858  0.5762876386017142  0.6113966177836476
  0.5762876386017142  0.5762876386017142  0.3886033822163523
  0.5762876386017142  0.5762876386017142  0.6113966177836476
  0.5000000000000000  0.5000000000000000  0.5000000000000000
  0.6477546949619921  0.5000000000000000  0.5000000000000000
  0.5762876386017142  0.4237123613982858  0.6113966177836476
  0.4237123613982858  0.5762876386017142  0.3886033822163523
  0.3522453050380078  0.5000000000000000  0.5000000000000000
  0.4237123613982858  0.4237123613982858  0.3886033822163523
  0.5000000000000000  0.3522453050380078  0.5000000000000000
  0.5762876386017142  0.4237123613982858  0.3886033822163523
 
  0.00000000E+00  0.00000000E+00  0.00000000E+00
  0.00000000E+00  0.00000000E+00  0.00000000E+00
  0.00000000E+00  0.00000000E+00  0.00000000E+00
  0.00000000E+00  0.00000000E+00  0.00000000E+00
  0.00000000E+00  0.00000000E+00  0.00000000E+00
  0.00000000E+00  0.00000000E+00  0.00000000E+00
  0.00000000E+00  0.00000000E+00  0.00000000E+00
  0.00000000E+00  0.00000000E+00  0.00000000E+00
  0.00000000E+00  0.00000000E+00  0.00000000E+00
  0.00000000E+00  0.00000000E+00  0.00000000E+00
  0.00000000E+00  0.00000000E+00  0.00000000E+00
  0.00000000E+00  0.00000000E+00  0.00000000E+00
  0.00000000E+00  0.00000000E+00  0.00000000E+00
