Ag13, -885.0 <s> Ag </s>                
   1.00000000000000     
    18.6213119999999996    0.0000000000000000    0.0000000000000000
     0.0000000000000000   18.6213119999999996    0.0000000000000000
     0.0000000000000000    0.0000000000000000   18.6213119999999996
   Ag
    13
Direct
  0.4233943495241263  0.4233943495241263  0.6113832928857819
  0.5000000000000000  0.6476538156814280  0.5000000000000000
  0.4233943495241263  0.5766056504758738  0.6113832928857819
  0.5766056504758738  0.5766056504758738  0.3886167071142180
  0.5766056504758738  0.5766056504758738  0.6113832928857819
  0.5000000000000000  0.5000000000000000  0.5000000000000000
  0.6476538156814280  0.5000000000000000  0.5000000000000000
  0.5766056504758738  0.4233943495241263  0.6113832928857819
  0.4233943495241263  0.5766056504758738  0.3886167071142180
  0.3523461843185720  0.5000000000000000  0.5000000000000000
  0.4233943495241263  0.4233943495241263  0.3886167071142180
  0.5000000000000000  0.3523461843185720  0.5000000000000000
  0.5766056504758738  0.4233943495241263  0.3886167071142180
 
  0.00000000E+00  0.00000000E+00  0.00000000E+00
  0.00000000E+00  0.00000000E+00  0.00000000E+00
  0.00000000E+00  0.00000000E+00  0.00000000E+00
  0.00000000E+00  0.00000000E+00  0.00000000E+00
  0.00000000E+00  0.00000000E+00  0.00000000E+00
  0.00000000E+00  0.00000000E+00  0.00000000E+00
  0.00000000E+00  0.00000000E+00  0.00000000E+00
  0.00000000E+00  0.00000000E+00  0.00000000E+00
  0.00000000E+00  0.00000000E+00  0.00000000E+00
  0.00000000E+00  0.00000000E+00  0.00000000E+00
  0.00000000E+00  0.00000000E+00  0.00000000E+00
  0.00000000E+00  0.00000000E+00  0.00000000E+00
  0.00000000E+00  0.00000000E+00  0.00000000E+00
