Pd13 https://doi.org/10.1039/C7CP02240A <s> Pd </s>
  1.00000000000000
    17.29829500000000     0.00000000000000     0.00000000000000
     0.00000000000000    17.29829500000000     0.00000000000000
     0.00000000000000     0.00000000000000    17.29829500000000
  Pd    
  13    
Cartesian
    -0.00855500000000      2.52073100000000     -1.63660600000000   
    -0.07780100000000     -0.10765100000000     -1.60864500000000   
     0.11785200000000     -2.60163500000000     -0.85795200000000   
     2.27184900000000      1.12673000000000     -1.55032200000000   
     1.98529500000000     -0.93508200000000      0.24521100000000   
    -1.77616400000000      1.30912300000000     -0.08818400000000   
    -2.29332200000000     -1.28724200000000     -0.77585900000000   
     0.85269500000000      1.52427300000000      0.64038100000000   
    -0.96005200000000      1.21821600000000      2.53540600000000   
    -3.02644600000000     -0.24952000000000      1.61209800000000   
     1.38203900000000     -0.06558300000000      2.66809700000000   
    -0.54342200000000     -1.00281700000000      1.14218800000000   
     2.07603000000000     -1.44954400000000     -2.32581600000000   
