Pt35, -166.68524417 <s> Ag </s>         
   1.00000000000000     
    23.1713161245610699    0.0000000000000000    0.0000000000000000
     0.0000000000000000   23.1713161245610699    0.0000000000000000
     0.0000000000000000    0.0000000000000000   23.1713161245610699
   Ag
    35
Direct
  0.3458919589311183  0.6534664479043707  0.5082856136336921
  0.4127177269381104  0.5526224059544110  0.5141342842773138
  0.5510383002886629  0.6092667720881272  0.4067155598583787
  0.5575696385008762  0.4935773152436050  0.6969142811243813
  0.3681049300758852  0.4991098571347894  0.3330233915807035
  0.4572633337977243  0.4394020374007549  0.5310526397832792
  0.4378567581028442  0.6519477581580481  0.6418823244821216
  0.5664232401624344  0.2741610583868867  0.4778970259903854
  0.3476195179807884  0.5824703696034860  0.6101703992681253
  0.5144699316258908  0.6259615515657343  0.5517418023307242
  0.5988406041455477  0.5491370655714436  0.5976203838226489
  0.4544141654312166  0.5852089515437950  0.3439636329587172
  0.6228831782338918  0.5122720068459593  0.4083158193691995
  0.4486327485755074  0.6582726121781949  0.4425667530321940
  0.6648827603919282  0.4862345788726025  0.5202117110524355
  0.3553854051104896  0.5855723641720685  0.4126854147288110
  0.5106408717322463  0.2203926689721588  0.5650702889043948
  0.5680505767754412  0.4367514898115702  0.5878115476288305
  0.4684023064838667  0.4138049105365277  0.6498356089895247
  0.7130997683303272  0.5770509541263248  0.5875267869165333
  0.4685092162148621  0.5329625459845356  0.6197335718936993
  0.5377954481276904  0.5188336260742118  0.4936847186241092
  0.6226695753915217  0.6675392872949800  0.5920815698632060
  0.5115917438203488  0.3361668015290002  0.5624910881179874
  0.5872809414087710  0.3996229339261161  0.4762398187337466
  0.6981335096584307  0.4222538621047855  0.4234428391531073
  0.3408411408920338  0.7098389045424263  0.6101507685511571
  0.4471002146066262  0.4889713178867751  0.4193896440165458
  0.5905377350797197  0.2219484074517216  0.3765448615668084
  0.6547567982109181  0.5693184434358924  0.6978677634189148
  0.6426297485515692  0.3224387928046274  0.4003522882949224
  0.5451664442810397  0.6193506433213468  0.6775790848483442
  0.6338524070014384  0.6035681673684381  0.4912833438920327
  0.4441798285999466  0.7256086535741445  0.5430220678409992
  0.5577305326021489  0.7070759648516948  0.4807566461242901
 
  0.00000000E+00  0.00000000E+00  0.00000000E+00
  0.00000000E+00  0.00000000E+00  0.00000000E+00
  0.00000000E+00  0.00000000E+00  0.00000000E+00
  0.00000000E+00  0.00000000E+00  0.00000000E+00
  0.00000000E+00  0.00000000E+00  0.00000000E+00
  0.00000000E+00  0.00000000E+00  0.00000000E+00
  0.00000000E+00  0.00000000E+00  0.00000000E+00
  0.00000000E+00  0.00000000E+00  0.00000000E+00
  0.00000000E+00  0.00000000E+00  0.00000000E+00
  0.00000000E+00  0.00000000E+00  0.00000000E+00
  0.00000000E+00  0.00000000E+00  0.00000000E+00
  0.00000000E+00  0.00000000E+00  0.00000000E+00
  0.00000000E+00  0.00000000E+00  0.00000000E+00
  0.00000000E+00  0.00000000E+00  0.00000000E+00
  0.00000000E+00  0.00000000E+00  0.00000000E+00
  0.00000000E+00  0.00000000E+00  0.00000000E+00
  0.00000000E+00  0.00000000E+00  0.00000000E+00
  0.00000000E+00  0.00000000E+00  0.00000000E+00
  0.00000000E+00  0.00000000E+00  0.00000000E+00
  0.00000000E+00  0.00000000E+00  0.00000000E+00
  0.00000000E+00  0.00000000E+00  0.00000000E+00
  0.00000000E+00  0.00000000E+00  0.00000000E+00
  0.00000000E+00  0.00000000E+00  0.00000000E+00
  0.00000000E+00  0.00000000E+00  0.00000000E+00
  0.00000000E+00  0.00000000E+00  0.00000000E+00
  0.00000000E+00  0.00000000E+00  0.00000000E+00
  0.00000000E+00  0.00000000E+00  0.00000000E+00
  0.00000000E+00  0.00000000E+00  0.00000000E+00
  0.00000000E+00  0.00000000E+00  0.00000000E+00
  0.00000000E+00  0.00000000E+00  0.00000000E+00
  0.00000000E+00  0.00000000E+00  0.00000000E+00
  0.00000000E+00  0.00000000E+00  0.00000000E+00
  0.00000000E+00  0.00000000E+00  0.00000000E+00
  0.00000000E+00  0.00000000E+00  0.00000000E+00
  0.00000000E+00  0.00000000E+00  0.00000000E+00
