Pt12, -52.2222624 <s> Pd </s>           
   1.00000000000000     
    18.6025178011735512    0.0000000000000000    0.0000000000000000
     0.0000000000000000   18.6025178011735512    0.0000000000000000
     0.0000000000000000    0.0000000000000000   18.6025178011735512
   Pd
    12
Direct
  0.5789136359782990  0.6267194119854692  0.4447080889655914
  0.5674529754871344  0.4274543439866072  0.3290149085744603
  0.5923571577545997  0.4914679059053157  0.4480726579132938
  0.5690699309884563  0.5661972807252524  0.5681710443678774
  0.5702446408978271  0.3516805211653581  0.4455568329882242
  0.5396482910092859  0.4744618801445387  0.6664731477035690
  0.4601191015673212  0.5571468613683013  0.4635716019228204
  0.4993149730448935  0.4318144105417837  0.5438304773705093
  0.4324163290406468  0.5432949142178919  0.6121812595888427
  0.3591093625264242  0.4695501179866084  0.5095477219062235
  0.3452577125421850  0.6068984242716319  0.5252577060026195
  0.4543722153666774  0.4222158124224329  0.4123532318832592
 
  0.00000000E+00  0.00000000E+00  0.00000000E+00
  0.00000000E+00  0.00000000E+00  0.00000000E+00
  0.00000000E+00  0.00000000E+00  0.00000000E+00
  0.00000000E+00  0.00000000E+00  0.00000000E+00
  0.00000000E+00  0.00000000E+00  0.00000000E+00
  0.00000000E+00  0.00000000E+00  0.00000000E+00
  0.00000000E+00  0.00000000E+00  0.00000000E+00
  0.00000000E+00  0.00000000E+00  0.00000000E+00
  0.00000000E+00  0.00000000E+00  0.00000000E+00
  0.00000000E+00  0.00000000E+00  0.00000000E+00
  0.00000000E+00  0.00000000E+00  0.00000000E+00
  0.00000000E+00  0.00000000E+00  0.00000000E+00
