Ag10, -17.76368542 <s> Ag </s>          
   1.00000000000000     
    19.2304053669245896    0.0000000000000000    0.0000000000000000
     0.0000000000000000   19.2304053669245896    0.0000000000000000
     0.0000000000000000    0.0000000000000000   19.2304053669245896
   Ag
    10
Direct
  0.5459728086057621  0.4471492204726069  0.4168521406104195
  0.4904595124802252  0.5817122097001463  0.4195976533189163
  0.4066814080005816  0.4738121543354232  0.4495389091403221
  0.6283783055631348  0.5529216976811829  0.4715841270934175
  0.5821161941739144  0.6843845240142735  0.4735020761158387
  0.4812023972952697  0.3604416684705670  0.5123743111370347
  0.3448598311309719  0.3740959530869702  0.5388800203111521
  0.5131439881577530  0.5893663268079283  0.5612942158605144
  0.5742598634703707  0.4575286841099777  0.5651573977414969
  0.4329256911220168  0.4785875613209241  0.5912191486708879
 
  0.00000000E+00  0.00000000E+00  0.00000000E+00
  0.00000000E+00  0.00000000E+00  0.00000000E+00
  0.00000000E+00  0.00000000E+00  0.00000000E+00
  0.00000000E+00  0.00000000E+00  0.00000000E+00
  0.00000000E+00  0.00000000E+00  0.00000000E+00
  0.00000000E+00  0.00000000E+00  0.00000000E+00
  0.00000000E+00  0.00000000E+00  0.00000000E+00
  0.00000000E+00  0.00000000E+00  0.00000000E+00
  0.00000000E+00  0.00000000E+00  0.00000000E+00
  0.00000000E+00  0.00000000E+00  0.00000000E+00
