Ti12, -71.92025867 <s> Pd </s>          
   1.00000000000000     
    19.3216221130743016    0.0000000000000000    0.0000000000000000
     0.0000000000000000   19.3216221130743016    0.0000000000000000
     0.0000000000000000    0.0000000000000000   19.3216221130743016
   Pd
    12
Direct
  0.5043960415916883  0.4664562740285682  0.3168635046044855
  0.6313595839387699  0.4479432762867120  0.3740422092001527
  0.5239699919234591  0.3738150643725600  0.4127337086355852
  0.4330946355671585  0.5896862086799233  0.4840353912433346
  0.5404832681318209  0.5278517911749995  0.4328804255206608
  0.4059883389601883  0.4778702599703504  0.4095557463965112
  0.4687762543129794  0.4327172606037251  0.5208752608610767
  0.3512821887069815  0.4959964870696469  0.5403148557034105
  0.6052818758317842  0.4365875809208216  0.5106811062768652
  0.4133830902487846  0.5935256506775809  0.6174138074124091
  0.5327532320976858  0.5402811586641576  0.5719817252238092
  0.4395824537365801  0.4643814238623959  0.6479961348220782
 
  0.00000000E+00  0.00000000E+00  0.00000000E+00
  0.00000000E+00  0.00000000E+00  0.00000000E+00
  0.00000000E+00  0.00000000E+00  0.00000000E+00
  0.00000000E+00  0.00000000E+00  0.00000000E+00
  0.00000000E+00  0.00000000E+00  0.00000000E+00
  0.00000000E+00  0.00000000E+00  0.00000000E+00
  0.00000000E+00  0.00000000E+00  0.00000000E+00
  0.00000000E+00  0.00000000E+00  0.00000000E+00
  0.00000000E+00  0.00000000E+00  0.00000000E+00
  0.00000000E+00  0.00000000E+00  0.00000000E+00
  0.00000000E+00  0.00000000E+00  0.00000000E+00
  0.00000000E+00  0.00000000E+00  0.00000000E+00
