Ag12, -912.0 <s> Ag </s>                
   1.00000000000000     
    21.3893519999999988    0.0000000000000000    0.0000000000000000
     0.0000000000000000   21.3893519999999988    0.0000000000000000
     0.0000000000000000    0.0000000000000000   21.3893519999999988
   Ag
    12
Direct
  0.5633761789905211  0.6858486439470902  0.5000000000000000
  0.4366238210094789  0.6858486439470902  0.5000000000000000
  0.5000000000000000  0.5739872770782365  0.5000000000000000
  0.3710084133739103  0.5744957941393838  0.5000000000000000
  0.4356863553404214  0.4627973793045129  0.5000000000000000
  0.3072799533743107  0.4623005330554303  0.5000000000000000
  0.3707757497478933  0.3520913765676599  0.5000000000000000
  0.5000000000000000  0.3509452688936163  0.5000000000000000
  0.6292242502521067  0.3520913765676599  0.5000000000000000
  0.6927200466256892  0.4623005330554303  0.5000000000000000
  0.5643136446595786  0.4627973793045129  0.5000000000000000
  0.6289915866260897  0.5744957941393838  0.5000000000000000
 
  0.00000000E+00  0.00000000E+00  0.00000000E+00
  0.00000000E+00  0.00000000E+00  0.00000000E+00
  0.00000000E+00  0.00000000E+00  0.00000000E+00
  0.00000000E+00  0.00000000E+00  0.00000000E+00
  0.00000000E+00  0.00000000E+00  0.00000000E+00
  0.00000000E+00  0.00000000E+00  0.00000000E+00
  0.00000000E+00  0.00000000E+00  0.00000000E+00
  0.00000000E+00  0.00000000E+00  0.00000000E+00
  0.00000000E+00  0.00000000E+00  0.00000000E+00
  0.00000000E+00  0.00000000E+00  0.00000000E+00
  0.00000000E+00  0.00000000E+00  0.00000000E+00
  0.00000000E+00  0.00000000E+00  0.00000000E+00
