Cu11 https://doi.org/10.1039/C7CP02240A <s> Cu </s>
  1.00000000000000
    17.93832000000000     0.00000000000000     0.00000000000000
     0.00000000000000    17.93832000000000     0.00000000000000
     0.00000000000000     0.00000000000000    17.93832000000000
  Cu    
  11    
Cartesian
    -0.43052100000000     -0.35633400000000     -1.76444200000000   
     0.87392000000000     -1.03595000000000      0.25214600000000   
    -0.55307700000000     -0.28840200000000      2.15968900000000   
    -2.68741000000000      0.40306800000000     -1.03482100000000   
     1.97548300000000     -0.98730800000000     -1.89494700000000   
    -2.79364000000000      0.40458900000000      1.39214400000000   
     1.42525500000000      1.00146900000000      1.41814500000000   
    -1.53313500000000     -1.29809200000000      0.19995900000000   
     1.33689800000000      1.14012800000000     -0.99066600000000   
     3.14468000000000     -0.11119900000000      0.04404000000000   
    -0.75845200000000      1.12803200000000      0.21875200000000   
