Nb13, -821.0 <s> Cu </s>
  1.00000000000000
    18.84386300000000     0.00000000000000     0.00000000000000
     0.00000000000000    18.84386300000000     0.00000000000000
     0.00000000000000     0.00000000000000    18.84386300000000
  Cu    
  13    
Direct
     0.51217186330973      0.50706130777225      0.51818740357430   
     0.44962419567896      0.54898061173746      0.61877929906468   
     0.47903171080143      0.44220370952140      0.60953387196007   
     0.51027677827493      0.56588062754089      0.40359750983601   
     0.49563371526287      0.43423457049233      0.41582495190193   
     0.58142250870769      0.59313130823944      0.48118610485693   
     0.56907951483341      0.40891187591753      0.50304516382558   
     0.44244344457168      0.59743316984164      0.51387426538920   
     0.43563787201099      0.40416549583935      0.51585496401031   
     0.63843708877046      0.50046919429270      0.51165605097676   
     0.59614088160481      0.48961572646562      0.41142677501515   
     0.38001040008951      0.49394230810642      0.55416341768507   
     0.41009004377510      0.51397009423296      0.44287022190401   
