Pt19, -87.84750909 <s> Ag </s>          
   1.00000000000000     
    20.5893569457207484    0.0000000000000000    0.0000000000000000
     0.0000000000000000   20.5893569457207484    0.0000000000000000
     0.0000000000000000    0.0000000000000000   20.5893569457207484
   Ag
    19
Direct
  0.7148155701613071  0.4901023333857702  0.4268574778506680
  0.6759594347738332  0.5729699008449926  0.5265253729917325
  0.5901366798466621  0.5361848417252101  0.4240303700565854
  0.5392672013806176  0.6644724270086272  0.4159123954904260
  0.6159503837359153  0.4028194943181150  0.4478384637128533
  0.5468752045137174  0.6079120451692269  0.5356222801231572
  0.6101667598666138  0.5754323297267684  0.6485735414771007
  0.4993641450081208  0.3744594782133287  0.5059267895162872
  0.5891775235477921  0.4735756340855073  0.5594436804221705
  0.4582726855873853  0.5604317308197270  0.4260802863307028
  0.4995974181631274  0.4394012644880592  0.3875826291705469
  0.5406242617785522  0.3758993196122234  0.6350864921795295
  0.4992463142203079  0.5002771035293899  0.6628513059483309
  0.4774956283985137  0.6335164670754061  0.6458373843100244
  0.4291449364470204  0.6669041342082209  0.5107823150225171
  0.4139784408671480  0.5444101545515786  0.5660404992570149
  0.3905526319866711  0.4491308323787345  0.4711381803842787
  0.4132063886613926  0.4135744832657215  0.6003148912612770
  0.3334459565861295  0.5765615063487126  0.4617665055509896
 
  0.00000000E+00  0.00000000E+00  0.00000000E+00
  0.00000000E+00  0.00000000E+00  0.00000000E+00
  0.00000000E+00  0.00000000E+00  0.00000000E+00
  0.00000000E+00  0.00000000E+00  0.00000000E+00
  0.00000000E+00  0.00000000E+00  0.00000000E+00
  0.00000000E+00  0.00000000E+00  0.00000000E+00
  0.00000000E+00  0.00000000E+00  0.00000000E+00
  0.00000000E+00  0.00000000E+00  0.00000000E+00
  0.00000000E+00  0.00000000E+00  0.00000000E+00
  0.00000000E+00  0.00000000E+00  0.00000000E+00
  0.00000000E+00  0.00000000E+00  0.00000000E+00
  0.00000000E+00  0.00000000E+00  0.00000000E+00
  0.00000000E+00  0.00000000E+00  0.00000000E+00
  0.00000000E+00  0.00000000E+00  0.00000000E+00
  0.00000000E+00  0.00000000E+00  0.00000000E+00
  0.00000000E+00  0.00000000E+00  0.00000000E+00
  0.00000000E+00  0.00000000E+00  0.00000000E+00
  0.00000000E+00  0.00000000E+00  0.00000000E+00
  0.00000000E+00  0.00000000E+00  0.00000000E+00
