Al11, -29.6501451 <s> Pd </s>           
   1.00000000000000     
    18.2937373025848906    0.0000000000000000    0.0000000000000000
     0.0000000000000000   18.2937373025848906    0.0000000000000000
     0.0000000000000000    0.0000000000000000   18.2937373025848906
   Pd
    11
Direct
  0.6226434182494498  0.5376169805470364  0.4799065143866504
  0.5912847227396621  0.4202306206678801  0.5627007663779766
  0.5803474726788707  0.4083773803632045  0.4166824527899938
  0.5054835230611854  0.6305937173330726  0.4805109931348091
  0.4744069862153749  0.3481297345228052  0.4983723346064155
  0.4894327997590513  0.4892136954618563  0.4912764691633439
  0.5443804465186685  0.5579693229500604  0.6027117168768817
  0.4357250306698235  0.4221345246794059  0.3775930468129725
  0.3895479874986407  0.5590102282274623  0.4170366133060556
  0.3991727619284128  0.5721460678465057  0.5633820978234010
  0.3555231076134561  0.4418638163267147  0.4995837018448680
 
  0.00000000E+00  0.00000000E+00  0.00000000E+00
  0.00000000E+00  0.00000000E+00  0.00000000E+00
  0.00000000E+00  0.00000000E+00  0.00000000E+00
  0.00000000E+00  0.00000000E+00  0.00000000E+00
  0.00000000E+00  0.00000000E+00  0.00000000E+00
  0.00000000E+00  0.00000000E+00  0.00000000E+00
  0.00000000E+00  0.00000000E+00  0.00000000E+00
  0.00000000E+00  0.00000000E+00  0.00000000E+00
  0.00000000E+00  0.00000000E+00  0.00000000E+00
  0.00000000E+00  0.00000000E+00  0.00000000E+00
  0.00000000E+00  0.00000000E+00  0.00000000E+00
