Pt4, -13.1241091 <s> Ag </s>            
   1.00000000000000     
    16.4371989381689012    0.0000000000000000    0.0000000000000000
     0.0000000000000000   16.4371989381689012    0.0000000000000000
     0.0000000000000000    0.0000000000000000   16.4371989381689012
   Ag
     4
Direct
  0.6328275316440509  0.5324044190205222  0.5146954004276575
  0.5322010458464159  0.4052928653248810  0.5021975235185618
  0.4033938279852679  0.5030838245473770  0.5187438186046668
  0.5037620640621887  0.6296937924910521  0.5351991032934282
 
  0.00000000E+00  0.00000000E+00  0.00000000E+00
  0.00000000E+00  0.00000000E+00  0.00000000E+00
  0.00000000E+00  0.00000000E+00  0.00000000E+00
  0.00000000E+00  0.00000000E+00  0.00000000E+00
