Re12, -752.0 <s> Ni </s>                
   1.00000000000000     
    18.2966589999999982    0.0000000000000000    0.0000000000000000
     0.0000000000000000   18.2966589999999982    0.0000000000000000
     0.0000000000000000    0.0000000000000000   18.2966589999999982
   Ni
    12
Direct
  0.4485769365540239  0.4887825050776219  0.3779957179356278
  0.5760289275256644  0.4887364598177183  0.4090513243607721
  0.5987802010556300  0.5623760366907571  0.5155872749948395
  0.4057916081391583  0.5027065053790001  0.5936240295938717
  0.4797873120969023  0.3905380538330634  0.5728704119635208
  0.5064066469539447  0.3817576328000234  0.4390319715845467
  0.5944313256541053  0.4305322362768753  0.5232619723283589
  0.5051830386486817  0.5955344633683410  0.4287472477302434
  0.3860593060505404  0.5635887416677430  0.4732552778781491
  0.4800273227547712  0.6037197224363340  0.5554272288175109
  0.5352861808331347  0.5020253682263740  0.6138213924380959
  0.4836411937334361  0.4897022744261275  0.4973261503744632
 
  0.00000000E+00  0.00000000E+00  0.00000000E+00
  0.00000000E+00  0.00000000E+00  0.00000000E+00
  0.00000000E+00  0.00000000E+00  0.00000000E+00
  0.00000000E+00  0.00000000E+00  0.00000000E+00
  0.00000000E+00  0.00000000E+00  0.00000000E+00
  0.00000000E+00  0.00000000E+00  0.00000000E+00
  0.00000000E+00  0.00000000E+00  0.00000000E+00
  0.00000000E+00  0.00000000E+00  0.00000000E+00
  0.00000000E+00  0.00000000E+00  0.00000000E+00
  0.00000000E+00  0.00000000E+00  0.00000000E+00
  0.00000000E+00  0.00000000E+00  0.00000000E+00
  0.00000000E+00  0.00000000E+00  0.00000000E+00
