Pt6, -22.38156684 <s> Ag </s>
  1.00000000000000
    16.53389555016841     0.00000000000000     0.00000000000000
     0.00000000000000    16.53389555016841     0.00000000000000
     0.00000000000000     0.00000000000000    16.53389555016841
  Ag    
  6     
Direct
     0.53216159038569      0.43232839365744      0.60492370794394   
     0.63759247357167      0.53243731742777      0.54244806205533   
     0.45120851022971      0.43207084244679      0.46500597265620   
     0.55570468273048      0.53336649930578      0.40330766950623   
     0.41426152637268      0.53952984126400      0.57930111818797   
     0.51987224322294      0.64018102296319      0.51880366647261   
