Cu13, -933.0 <s> Pd </s>                
   1.00000000000000     
    18.7007979999999989    0.0000000000000000    0.0000000000000000
     0.0000000000000000   18.7007979999999989    0.0000000000000000
     0.0000000000000000    0.0000000000000000   18.7007979999999989
   Pd
    13
Direct
  0.4545656970352059  0.3573308079233761  0.4270912164758808
  0.3422645980288981  0.5117702847219674  0.5533852898326178
  0.5118624401608088  0.4561276137168800  0.3350894926304537
  0.5510177712474105  0.6064173629449230  0.6379793929726811
  0.5672153733012938  0.4683289806253473  0.6096120552035155
  0.4420497794468273  0.5142850909186950  0.6602940790386495
  0.6354873844766078  0.5144101612191474  0.3794631906796107
  0.5130831794550768  0.5837700560070900  0.3988927900021738
  0.6088492624032215  0.5695906729381902  0.5109110495584979
  0.5516428618575451  0.4483807250498709  0.4703882415968934
  0.4701647524903798  0.5648529509109641  0.5315631773784909
  0.4443483545528686  0.4146240108609984  0.5574246290747259
  0.4074485455438419  0.4901112676260609  0.4279053955557952
 
  0.00000000E+00  0.00000000E+00  0.00000000E+00
  0.00000000E+00  0.00000000E+00  0.00000000E+00
  0.00000000E+00  0.00000000E+00  0.00000000E+00
  0.00000000E+00  0.00000000E+00  0.00000000E+00
  0.00000000E+00  0.00000000E+00  0.00000000E+00
  0.00000000E+00  0.00000000E+00  0.00000000E+00
  0.00000000E+00  0.00000000E+00  0.00000000E+00
  0.00000000E+00  0.00000000E+00  0.00000000E+00
  0.00000000E+00  0.00000000E+00  0.00000000E+00
  0.00000000E+00  0.00000000E+00  0.00000000E+00
  0.00000000E+00  0.00000000E+00  0.00000000E+00
  0.00000000E+00  0.00000000E+00  0.00000000E+00
  0.00000000E+00  0.00000000E+00  0.00000000E+00
