Pt35, -167.41704004 <s> Ag </s>         
   1.00000000000000     
    22.1011192074998704    0.0000000000000000    0.0000000000000000
     0.0000000000000000   22.1011192074998704    0.0000000000000000
     0.0000000000000000    0.0000000000000000   22.1011192074998704
   Ag
    35
Direct
  0.5439089273412311  0.3881207709721942  0.4244769480155379
  0.3736536137455888  0.4918413432229992  0.5785563789258042
  0.6722960148747986  0.3938257947905402  0.6115090488411300
  0.5380133705555644  0.5761500502293176  0.6394055518833393
  0.6624540821045644  0.5226339936954058  0.3331145257724076
  0.6524953841204097  0.3772051494283941  0.4915664464452671
  0.5979356956601602  0.4789192741654461  0.5506035792476720
  0.6593192965172686  0.4015741096524617  0.3716704833901885
  0.3071362846446916  0.5958693343176387  0.5353093387812420
  0.5333740332912625  0.5348292181692704  0.7583531027932218
  0.6457857561072217  0.5785951609677522  0.7130211723750393
  0.4289907516176846  0.6038047913187998  0.3671973542943508
  0.5599382633738984  0.4496147567732590  0.3121039204582388
  0.5163613689822373  0.6750584969037844  0.5563424440758735
  0.6901927182141182  0.5011139054934094  0.4616174986471966
  0.4598589750108320  0.4797913073790149  0.3788757858704576
  0.4115589895705565  0.6536256064887133  0.4845998908751836
  0.5454699092477135  0.5803236837930121  0.3241689781904578
  0.4155583780530332  0.3661189557893743  0.5973598879729303
  0.5419913591303649  0.3642389598026117  0.5538765727667671
  0.4145231245056629  0.6186054035954854  0.6062668137897991
  0.5720967570378545  0.5162545333211882  0.4284427582189886
  0.4243571976258015  0.5339942877136521  0.6990952779932018
  0.3132475981919748  0.6264659105166159  0.4102709528039923
  0.6001226707822090  0.4652801580125392  0.6811429876633459
  0.7217696359999398  0.4804545114181097  0.6888656984659913
  0.4886723021215658  0.5503595008150850  0.5202777295846341
  0.5299828695783485  0.6480574148076829  0.4327517797036929
  0.3712832834358808  0.5239654637676366  0.4553811056892231
  0.6142192763347966  0.6008708664351019  0.5224152929301604
  0.4486917948480657  0.4304514918323150  0.4950227118567281
  0.6488534591352207  0.6214657448954949  0.4039377398435574
  0.3113003169498251  0.5663161514949886  0.6571286222953451
  0.6210345926209369  0.6680006863054830  0.6286744719418370
  0.4899953757328158  0.4600228426508872  0.6219681987868311
 
  0.00000000E+00  0.00000000E+00  0.00000000E+00
  0.00000000E+00  0.00000000E+00  0.00000000E+00
  0.00000000E+00  0.00000000E+00  0.00000000E+00
  0.00000000E+00  0.00000000E+00  0.00000000E+00
  0.00000000E+00  0.00000000E+00  0.00000000E+00
  0.00000000E+00  0.00000000E+00  0.00000000E+00
  0.00000000E+00  0.00000000E+00  0.00000000E+00
  0.00000000E+00  0.00000000E+00  0.00000000E+00
  0.00000000E+00  0.00000000E+00  0.00000000E+00
  0.00000000E+00  0.00000000E+00  0.00000000E+00
  0.00000000E+00  0.00000000E+00  0.00000000E+00
  0.00000000E+00  0.00000000E+00  0.00000000E+00
  0.00000000E+00  0.00000000E+00  0.00000000E+00
  0.00000000E+00  0.00000000E+00  0.00000000E+00
  0.00000000E+00  0.00000000E+00  0.00000000E+00
  0.00000000E+00  0.00000000E+00  0.00000000E+00
  0.00000000E+00  0.00000000E+00  0.00000000E+00
  0.00000000E+00  0.00000000E+00  0.00000000E+00
  0.00000000E+00  0.00000000E+00  0.00000000E+00
  0.00000000E+00  0.00000000E+00  0.00000000E+00
  0.00000000E+00  0.00000000E+00  0.00000000E+00
  0.00000000E+00  0.00000000E+00  0.00000000E+00
  0.00000000E+00  0.00000000E+00  0.00000000E+00
  0.00000000E+00  0.00000000E+00  0.00000000E+00
  0.00000000E+00  0.00000000E+00  0.00000000E+00
  0.00000000E+00  0.00000000E+00  0.00000000E+00
  0.00000000E+00  0.00000000E+00  0.00000000E+00
  0.00000000E+00  0.00000000E+00  0.00000000E+00
  0.00000000E+00  0.00000000E+00  0.00000000E+00
  0.00000000E+00  0.00000000E+00  0.00000000E+00
  0.00000000E+00  0.00000000E+00  0.00000000E+00
  0.00000000E+00  0.00000000E+00  0.00000000E+00
  0.00000000E+00  0.00000000E+00  0.00000000E+00
  0.00000000E+00  0.00000000E+00  0.00000000E+00
  0.00000000E+00  0.00000000E+00  0.00000000E+00
