Mo11, -837.0 <s> Ni </s>                
   1.00000000000000     
    17.9438880000000012    0.0000000000000000    0.0000000000000000
     0.0000000000000000   17.9438880000000012    0.0000000000000000
     0.0000000000000000    0.0000000000000000   17.9438880000000012
   Ni
    11
Direct
  0.5826969101175175  0.6025865072127291  0.5756497855607100
  0.6102281676291407  0.4455869178913371  0.5903748004898192
  0.3651527069653806  0.3911271105098321  0.5122563100814850
  0.3818373671442575  0.5180033349654791  0.4312983114316590
  0.5138599429829775  0.4107504084037245  0.4532895267097059
  0.5167903571769459  0.6108540097179980  0.4304139249549720
  0.6427381078788988  0.5141969659190900  0.4491330251449511
  0.4925186630319840  0.3528724159915826  0.5996469764335035
  0.4231057296192678  0.6470878231327313  0.5387730182705495
  0.4495059529677545  0.5053533259423240  0.5883883084123145
  0.5215660895985703  0.5015811754258611  0.3307760027357277
 
  0.00000000E+00  0.00000000E+00  0.00000000E+00
  0.00000000E+00  0.00000000E+00  0.00000000E+00
  0.00000000E+00  0.00000000E+00  0.00000000E+00
  0.00000000E+00  0.00000000E+00  0.00000000E+00
  0.00000000E+00  0.00000000E+00  0.00000000E+00
  0.00000000E+00  0.00000000E+00  0.00000000E+00
  0.00000000E+00  0.00000000E+00  0.00000000E+00
  0.00000000E+00  0.00000000E+00  0.00000000E+00
  0.00000000E+00  0.00000000E+00  0.00000000E+00
  0.00000000E+00  0.00000000E+00  0.00000000E+00
  0.00000000E+00  0.00000000E+00  0.00000000E+00
