Pt13, -57.35718158 <s> Ag </s>          
   1.00000000000000     
    18.4470149908745000    0.0000000000000000    0.0000000000000000
     0.0000000000000000   18.4470149908745000    0.0000000000000000
     0.0000000000000000    0.0000000000000000   18.4470149908745000
   Ag
    13
Direct
  0.4324338033768173  0.6717464472553488  0.4951595121576918
  0.3188170240320956  0.5777000984088454  0.5378485732989360
  0.4467529826808976  0.5797857296667918  0.6157357539156485
  0.5493021119078108  0.6414989507588683  0.4068410308443507
  0.5744104385551448  0.5823420568475253  0.5409120348121857
  0.6927304291684351  0.5789032070448155  0.4461092633763708
  0.4439025656995614  0.5274598218249320  0.4630360349912426
  0.3899891977775059  0.4462127228042452  0.5792025312094624
  0.5394752120383132  0.4638772210099393  0.6317393162505918
  0.5132700297680454  0.3970257398053588  0.5009025212349471
  0.5780856104956420  0.4925952817843337  0.4059983032313810
  0.6111026603719698  0.3348265437794733  0.5976068540873181
  0.6603819514721135  0.4550402842629950  0.5277926122091047
 
  0.00000000E+00  0.00000000E+00  0.00000000E+00
  0.00000000E+00  0.00000000E+00  0.00000000E+00
  0.00000000E+00  0.00000000E+00  0.00000000E+00
  0.00000000E+00  0.00000000E+00  0.00000000E+00
  0.00000000E+00  0.00000000E+00  0.00000000E+00
  0.00000000E+00  0.00000000E+00  0.00000000E+00
  0.00000000E+00  0.00000000E+00  0.00000000E+00
  0.00000000E+00  0.00000000E+00  0.00000000E+00
  0.00000000E+00  0.00000000E+00  0.00000000E+00
  0.00000000E+00  0.00000000E+00  0.00000000E+00
  0.00000000E+00  0.00000000E+00  0.00000000E+00
  0.00000000E+00  0.00000000E+00  0.00000000E+00
  0.00000000E+00  0.00000000E+00  0.00000000E+00
