Pt13, -57.35718158 <s> Ag </s>          
   1.00000000000000     
    18.4470149908745000    0.0000000000000000    0.0000000000000000
     0.0000000000000000   18.4470149908745000    0.0000000000000000
     0.0000000000000000    0.0000000000000000   18.4470149908745000
   Ag
    13
Direct
  0.4325230864621760  0.6712387624095029  0.4952537510778455
  0.3186744427611740  0.5782341855847137  0.5384763666311284
  0.4465788360775218  0.5799529384353300  0.6156005188004823
  0.5498478219229610  0.6414030870264728  0.4065025319766007
  0.5737879833505395  0.5822542616925476  0.5408687018947025
  0.6927530943755080  0.5794061460141943  0.4461094662600677
  0.4435259771227140  0.5272110291595870  0.4622750659292646
  0.3899969384931886  0.4462610709217903  0.5798300251651807
  0.5392642068735376  0.4634570725330884  0.6320180541920360
  0.5133204110843699  0.3971667086458475  0.5008364554256862
  0.5785778864054802  0.4925855233861254  0.4057648727741551
  0.6110205203416408  0.3346847513588844  0.5975322459700162
  0.6607828120735397  0.4551585680853817  0.5278162855220652
 
  0.00000000E+00  0.00000000E+00  0.00000000E+00
  0.00000000E+00  0.00000000E+00  0.00000000E+00
  0.00000000E+00  0.00000000E+00  0.00000000E+00
  0.00000000E+00  0.00000000E+00  0.00000000E+00
  0.00000000E+00  0.00000000E+00  0.00000000E+00
  0.00000000E+00  0.00000000E+00  0.00000000E+00
  0.00000000E+00  0.00000000E+00  0.00000000E+00
  0.00000000E+00  0.00000000E+00  0.00000000E+00
  0.00000000E+00  0.00000000E+00  0.00000000E+00
  0.00000000E+00  0.00000000E+00  0.00000000E+00
  0.00000000E+00  0.00000000E+00  0.00000000E+00
  0.00000000E+00  0.00000000E+00  0.00000000E+00
  0.00000000E+00  0.00000000E+00  0.00000000E+00
