Ag13, -882.0 <s> Ni </s>                
   1.00000000000000     
    22.2923499999999990    0.0000000000000000    0.0000000000000000
     0.0000000000000000   22.2923499999999990    0.0000000000000000
     0.0000000000000000    0.0000000000000000   22.2923499999999990
   Ni
    13
Direct
  0.4131656260272620  0.5540976162923154  0.5215189255169562
  0.5000000000000000  0.4470335646181772  0.4574862841783575
  0.4120096619118311  0.5000000000000000  0.4311235268960760
  0.5868343739727383  0.4459023837076844  0.5215189255169562
  0.5000000000000000  0.5529664353818229  0.4574862841783575
  0.5879903380881758  0.5000000000000000  0.4311235268960760
  0.5000000000000000  0.5000000000000000  0.5531520815048240
  0.5868343739727383  0.5540976162923154  0.5215189255169561
  0.5000000000000000  0.6048526673039979  0.5473084857453868
  0.5000000000000000  0.3951473326960162  0.5473084857453868
  0.4131656260272620  0.4459023837076844  0.5215189255169562
  0.3305341862128662  0.5000000000000000  0.4944678113938413
  0.6694658137871338  0.5000000000000000  0.4944678113938413
 
  0.00000000E+00  0.00000000E+00  0.00000000E+00
  0.00000000E+00  0.00000000E+00  0.00000000E+00
  0.00000000E+00  0.00000000E+00  0.00000000E+00
  0.00000000E+00  0.00000000E+00  0.00000000E+00
  0.00000000E+00  0.00000000E+00  0.00000000E+00
  0.00000000E+00  0.00000000E+00  0.00000000E+00
  0.00000000E+00  0.00000000E+00  0.00000000E+00
  0.00000000E+00  0.00000000E+00  0.00000000E+00
  0.00000000E+00  0.00000000E+00  0.00000000E+00
  0.00000000E+00  0.00000000E+00  0.00000000E+00
  0.00000000E+00  0.00000000E+00  0.00000000E+00
  0.00000000E+00  0.00000000E+00  0.00000000E+00
  0.00000000E+00  0.00000000E+00  0.00000000E+00
