Al23, -70.08230985 <s> Ag </s>          
   1.00000000000000     
    20.2340515735472195    0.0000000000000000    0.0000000000000000
     0.0000000000000000   20.2340515735472195    0.0000000000000000
     0.0000000000000000    0.0000000000000000   20.2340515735472195
   Ag
    23
Direct
  0.4665808178337506  0.6722459135577644  0.5951627471685649
  0.5619894163147804  0.5951381923715680  0.6635589056664540
  0.5530097257562365  0.5656442559607656  0.5254555104473264
  0.6647075991917284  0.5202830808227750  0.6108514682112053
  0.3324153023613972  0.6192447782693367  0.6102747315257944
  0.5075808459465001  0.6834045647423833  0.4641915840103314
  0.6037590825154391  0.6199728394012337  0.3888404167629348
  0.6850880234497491  0.5477015858112569  0.4779047820600478
  0.4029134324727054  0.5946377828014466  0.4992885027744330
  0.5430638918929558  0.4577020164500966  0.6338284990186059
  0.4389666540961815  0.5378936499520500  0.6223366046115696
  0.6496166281769090  0.3759141367068224  0.6379618009058308
  0.4758840591138438  0.5656990814875040  0.3921919386913520
  0.6216982904577681  0.4270737708204439  0.5171949530128559
  0.5860475736774363  0.4810954216162351  0.4022476252819610
  0.5496932744609405  0.5357890372427894  0.2846670958801247
  0.4693376952721318  0.4529085621926339  0.4982649390548850
  0.3303878209828693  0.4872707942851881  0.5500186247348280
  0.4155768546177468  0.3979679305401644  0.6171892386381872
  0.5280748594464719  0.3367836059898637  0.5667804692621168
  0.3606991938427065  0.4879285636890919  0.4161667658997161
  0.4663930317349543  0.4346804455152782  0.3464682434733456
  0.5395063412480816  0.3502502747310813  0.4311347942302709
 
  0.00000000E+00  0.00000000E+00  0.00000000E+00
  0.00000000E+00  0.00000000E+00  0.00000000E+00
  0.00000000E+00  0.00000000E+00  0.00000000E+00
  0.00000000E+00  0.00000000E+00  0.00000000E+00
  0.00000000E+00  0.00000000E+00  0.00000000E+00
  0.00000000E+00  0.00000000E+00  0.00000000E+00
  0.00000000E+00  0.00000000E+00  0.00000000E+00
  0.00000000E+00  0.00000000E+00  0.00000000E+00
  0.00000000E+00  0.00000000E+00  0.00000000E+00
  0.00000000E+00  0.00000000E+00  0.00000000E+00
  0.00000000E+00  0.00000000E+00  0.00000000E+00
  0.00000000E+00  0.00000000E+00  0.00000000E+00
  0.00000000E+00  0.00000000E+00  0.00000000E+00
  0.00000000E+00  0.00000000E+00  0.00000000E+00
  0.00000000E+00  0.00000000E+00  0.00000000E+00
  0.00000000E+00  0.00000000E+00  0.00000000E+00
  0.00000000E+00  0.00000000E+00  0.00000000E+00
  0.00000000E+00  0.00000000E+00  0.00000000E+00
  0.00000000E+00  0.00000000E+00  0.00000000E+00
  0.00000000E+00  0.00000000E+00  0.00000000E+00
  0.00000000E+00  0.00000000E+00  0.00000000E+00
  0.00000000E+00  0.00000000E+00  0.00000000E+00
  0.00000000E+00  0.00000000E+00  0.00000000E+00
