Ag12, -936.0 <s> Pd </s>                
   1.00000000000000     
    19.7729250000000008    0.0000000000000000    0.0000000000000000
     0.0000000000000000   19.7729250000000008    0.0000000000000000
     0.0000000000000000    0.0000000000000000   19.7729250000000008
   Pd
    12
Direct
  0.4353624555070418  0.5691428799172548  0.4692548523490573
  0.4353624555070418  0.4308571200827453  0.4692548523490573
  0.4059049708315623  0.5000000000000000  0.5804208109009013
  0.5000000000000000  0.4040811268918387  0.5847104475512278
  0.5646375444929583  0.4308571200827453  0.4692548523490573
  0.5646375444929583  0.5691428799172548  0.4692548523490573
  0.5940950291684376  0.5000000000000000  0.5804208109009013
  0.5000000000000000  0.5959188731081608  0.5847104475512278
  0.5000000000000000  0.6305254261993934  0.3735001994039077
  0.5000000000000000  0.5000000000000000  0.6797513419001404
  0.5000000000000000  0.5000000000000000  0.3659663305224642
  0.5000000000000000  0.3694745738006063  0.3735001994039077
 
  0.00000000E+00  0.00000000E+00  0.00000000E+00
  0.00000000E+00  0.00000000E+00  0.00000000E+00
  0.00000000E+00  0.00000000E+00  0.00000000E+00
  0.00000000E+00  0.00000000E+00  0.00000000E+00
  0.00000000E+00  0.00000000E+00  0.00000000E+00
  0.00000000E+00  0.00000000E+00  0.00000000E+00
  0.00000000E+00  0.00000000E+00  0.00000000E+00
  0.00000000E+00  0.00000000E+00  0.00000000E+00
  0.00000000E+00  0.00000000E+00  0.00000000E+00
  0.00000000E+00  0.00000000E+00  0.00000000E+00
  0.00000000E+00  0.00000000E+00  0.00000000E+00
  0.00000000E+00  0.00000000E+00  0.00000000E+00
