Pt11, -47.54600895 <s> Pd </s>          
   1.00000000000000     
    18.9634558306636904    0.0000000000000000    0.0000000000000000
     0.0000000000000000   18.9634558306636904    0.0000000000000000
     0.0000000000000000    0.0000000000000000   18.9634558306636904
   Pd
    11
Direct
  0.3959181315991466  0.6254925843863884  0.4643352397078053
  0.5896432260777886  0.4445805885054081  0.6490547859886813
  0.4739195635195533  0.4063607398695820  0.6001243847524305
  0.3719164382552142  0.4093705392228258  0.5116191960390308
  0.4321325671415303  0.5254417012288566  0.5451291434111140
  0.5111790929176884  0.6397355140583404  0.5332747925422052
  0.5021671707133184  0.4532655406766036  0.3363377749954184
  0.5734208305185835  0.5133667736274957  0.5385513588939460
  0.5085905489659188  0.5627861371068064  0.4184268654661519
  0.4984373654680088  0.4179342310678079  0.4651851883993033
  0.6138131129764075  0.4733256487979973  0.4096207570284545
 
  0.00000000E+00  0.00000000E+00  0.00000000E+00
  0.00000000E+00  0.00000000E+00  0.00000000E+00
  0.00000000E+00  0.00000000E+00  0.00000000E+00
  0.00000000E+00  0.00000000E+00  0.00000000E+00
  0.00000000E+00  0.00000000E+00  0.00000000E+00
  0.00000000E+00  0.00000000E+00  0.00000000E+00
  0.00000000E+00  0.00000000E+00  0.00000000E+00
  0.00000000E+00  0.00000000E+00  0.00000000E+00
  0.00000000E+00  0.00000000E+00  0.00000000E+00
  0.00000000E+00  0.00000000E+00  0.00000000E+00
  0.00000000E+00  0.00000000E+00  0.00000000E+00
