Ti12, -71.81489104 <s> Ni </s>          
   1.00000000000000     
    19.1511725356405087    0.0000000000000000    0.0000000000000000
     0.0000000000000000   19.1511725356405087    0.0000000000000000
     0.0000000000000000    0.0000000000000000   19.1511725356405087
   Ni
    12
Direct
  0.4447216149000917  0.5025434641119396  0.5349511499847296
  0.5450828973214027  0.4586022531550317  0.4808408518016681
  0.4925163028970732  0.3939628523879045  0.5761288511048903
  0.4564563007920817  0.5118423442256220  0.4121895639705710
  0.3729239069682516  0.4135895545207419  0.5690066190699612
  0.3481333977532501  0.4790076269834173  0.4595875130101604
  0.4335791400247141  0.3898211138992553  0.4673804688875284
  0.3559017051365465  0.5341534974538144  0.3463609583181941
  0.5431654350608522  0.3400663284397229  0.4751471267525186
  0.5124215325055617  0.4059903080702051  0.3740939018226582
  0.3876096245881539  0.4182330496803562  0.3577540411195978
  0.4600467307761357  0.4885222635014677  0.2933093550184772
 
  0.00000000E+00  0.00000000E+00  0.00000000E+00
  0.00000000E+00  0.00000000E+00  0.00000000E+00
  0.00000000E+00  0.00000000E+00  0.00000000E+00
  0.00000000E+00  0.00000000E+00  0.00000000E+00
  0.00000000E+00  0.00000000E+00  0.00000000E+00
  0.00000000E+00  0.00000000E+00  0.00000000E+00
  0.00000000E+00  0.00000000E+00  0.00000000E+00
  0.00000000E+00  0.00000000E+00  0.00000000E+00
  0.00000000E+00  0.00000000E+00  0.00000000E+00
  0.00000000E+00  0.00000000E+00  0.00000000E+00
  0.00000000E+00  0.00000000E+00  0.00000000E+00
  0.00000000E+00  0.00000000E+00  0.00000000E+00
