Ti12, -71.81489104 <s> Ni </s>          
   1.00000000000000     
    19.1511725356405087    0.0000000000000000    0.0000000000000000
     0.0000000000000000   19.1511725356405087    0.0000000000000000
     0.0000000000000000    0.0000000000000000   19.1511725356405087
   Ni
    12
Direct
  0.4458553286218548  0.5149053640305080  0.5560507028966601
  0.5673252475268705  0.4619014713565437  0.4921650314150236
  0.4998494939992655  0.3789441564212092  0.6020528420805600
  0.4613231535417657  0.5293227227396546  0.4043312736653650
  0.3552462344323579  0.4109598783834741  0.5971020774811033
  0.3261978673095724  0.4911727075978931  0.4666054614567405
  0.4259793946631422  0.3716000016194109  0.4679453998622252
  0.3366547875386977  0.5500410480498287  0.3205530396375934
  0.5679096997523112  0.3182424688862433  0.4854546036286893
  0.5321390841712456  0.4012335430046111  0.3582107046871866
  0.3757891139916971  0.4113331011983939  0.3400569750126147
  0.4582891831753275  0.4966781931417147  0.2562222890371868
 
  0.00000000E+00  0.00000000E+00  0.00000000E+00
  0.00000000E+00  0.00000000E+00  0.00000000E+00
  0.00000000E+00  0.00000000E+00  0.00000000E+00
  0.00000000E+00  0.00000000E+00  0.00000000E+00
  0.00000000E+00  0.00000000E+00  0.00000000E+00
  0.00000000E+00  0.00000000E+00  0.00000000E+00
  0.00000000E+00  0.00000000E+00  0.00000000E+00
  0.00000000E+00  0.00000000E+00  0.00000000E+00
  0.00000000E+00  0.00000000E+00  0.00000000E+00
  0.00000000E+00  0.00000000E+00  0.00000000E+00
  0.00000000E+00  0.00000000E+00  0.00000000E+00
  0.00000000E+00  0.00000000E+00  0.00000000E+00
