Ti46, -308.22093015 <s> Ag </s>         
   1.00000000000000     
    22.7516010989158985    0.0000000000000000    0.0000000000000000
     0.0000000000000000   22.7516010989158985    0.0000000000000000
     0.0000000000000000    0.0000000000000000   22.7516010989158985
   Ag
    46
Direct
  0.4934350408194783  0.3468082289748983  0.6973414103708513
  0.6200847196817216  0.3533474272856584  0.6800183108647436
  0.5167051354997403  0.4464391521658287  0.7611912418498612
  0.5425087816502374  0.3142492334866773  0.5891188200871857
  0.4203626498896163  0.3760599325873931  0.6001208735107106
  0.4219296262275092  0.4631157371371428  0.6865519213063472
  0.6241503219679048  0.4772147971818544  0.7101729740751413
  0.5462458767648514  0.4343350244736729  0.6231530549541505
  0.6648670603891651  0.3171167539157634  0.5661604658085126
  0.6767575847985241  0.4374944625082562  0.6064954675006052
  0.5138257759527777  0.5431762188160810  0.6812675207126817
  0.5690085264254023  0.2973271315564589  0.4705880266135228
  0.4910274633640447  0.3895408128400361  0.5033946974537009
  0.3675207074520377  0.4231326000458901  0.4947089000660846
  0.3364347954660800  0.4793715814697943  0.5967045280192501
  0.4572771687612165  0.4926422850897272  0.5658336021932165
  0.6099456050961098  0.4083913228162802  0.5064135063897104
  0.4004153352341711  0.5787476113044898  0.6352380711957296
  0.6120734330305433  0.5465013569040414  0.6087091227863867
  0.7302916038073975  0.4026406090832964  0.4984715696599259
  0.6641077056302193  0.3477761805051438  0.4088846875683120
  0.4262567245818557  0.3729238622711608  0.4007707336901541
  0.2926758039501371  0.5211395566295467  0.4851970497301700
  0.2986450752569751  0.6451383488159762  0.5069227640069964
  0.5062566942043708  0.6103835750630744  0.5766436739319152
  0.5506503034199793  0.4023048816577397  0.3939695918461235
  0.6556609863272252  0.4698504218655380  0.4030740262124069
  0.4008252693175166  0.5802243581947434  0.5032528356723224
  0.3535514915961913  0.4806485955454203  0.3803710956130317
  0.5612257608526435  0.5193345966667884  0.4978039610950265
  0.6839259195438596  0.5230277580861152  0.5111137244046550
  0.4646131600609386  0.4487699149567125  0.3153349838761854
  0.4611473986350444  0.4929035831291610  0.4349716413015301
  0.4079248967635177  0.6844793105609089  0.5727597513685423
  0.5042426173015714  0.6154924480353863  0.4401077275466287
  0.6117056000517133  0.6372044798960127  0.5235551068894212
  0.3354820513421463  0.6036120929533175  0.3951089604675339
  0.3966847637429377  0.6974036114028159  0.4505370519420726
  0.5105283148646713  0.7177196816183373  0.5111599239438889
  0.5545857835041035  0.5243190475109550  0.3531304617515326
  0.6366718425844851  0.5901040766374306  0.4123915170431632
  0.4355186946059201  0.5662804987971357  0.3341188978107471
  0.4058194593587317  0.6809853075830000  0.3266879875884008
  0.4891048879932116  0.7436152241475515  0.3898777617237429
  0.5320337080486431  0.6463261645538698  0.3251968501865222
  0.5987062814816011  0.7046151971985730  0.4214745081493185
 
  0.00000000E+00  0.00000000E+00  0.00000000E+00
  0.00000000E+00  0.00000000E+00  0.00000000E+00
  0.00000000E+00  0.00000000E+00  0.00000000E+00
  0.00000000E+00  0.00000000E+00  0.00000000E+00
  0.00000000E+00  0.00000000E+00  0.00000000E+00
  0.00000000E+00  0.00000000E+00  0.00000000E+00
  0.00000000E+00  0.00000000E+00  0.00000000E+00
  0.00000000E+00  0.00000000E+00  0.00000000E+00
  0.00000000E+00  0.00000000E+00  0.00000000E+00
  0.00000000E+00  0.00000000E+00  0.00000000E+00
  0.00000000E+00  0.00000000E+00  0.00000000E+00
  0.00000000E+00  0.00000000E+00  0.00000000E+00
  0.00000000E+00  0.00000000E+00  0.00000000E+00
  0.00000000E+00  0.00000000E+00  0.00000000E+00
  0.00000000E+00  0.00000000E+00  0.00000000E+00
  0.00000000E+00  0.00000000E+00  0.00000000E+00
  0.00000000E+00  0.00000000E+00  0.00000000E+00
  0.00000000E+00  0.00000000E+00  0.00000000E+00
  0.00000000E+00  0.00000000E+00  0.00000000E+00
  0.00000000E+00  0.00000000E+00  0.00000000E+00
  0.00000000E+00  0.00000000E+00  0.00000000E+00
  0.00000000E+00  0.00000000E+00  0.00000000E+00
  0.00000000E+00  0.00000000E+00  0.00000000E+00
  0.00000000E+00  0.00000000E+00  0.00000000E+00
  0.00000000E+00  0.00000000E+00  0.00000000E+00
  0.00000000E+00  0.00000000E+00  0.00000000E+00
  0.00000000E+00  0.00000000E+00  0.00000000E+00
  0.00000000E+00  0.00000000E+00  0.00000000E+00
  0.00000000E+00  0.00000000E+00  0.00000000E+00
  0.00000000E+00  0.00000000E+00  0.00000000E+00
  0.00000000E+00  0.00000000E+00  0.00000000E+00
  0.00000000E+00  0.00000000E+00  0.00000000E+00
  0.00000000E+00  0.00000000E+00  0.00000000E+00
  0.00000000E+00  0.00000000E+00  0.00000000E+00
  0.00000000E+00  0.00000000E+00  0.00000000E+00
  0.00000000E+00  0.00000000E+00  0.00000000E+00
  0.00000000E+00  0.00000000E+00  0.00000000E+00
  0.00000000E+00  0.00000000E+00  0.00000000E+00
  0.00000000E+00  0.00000000E+00  0.00000000E+00
  0.00000000E+00  0.00000000E+00  0.00000000E+00
  0.00000000E+00  0.00000000E+00  0.00000000E+00
  0.00000000E+00  0.00000000E+00  0.00000000E+00
  0.00000000E+00  0.00000000E+00  0.00000000E+00
  0.00000000E+00  0.00000000E+00  0.00000000E+00
  0.00000000E+00  0.00000000E+00  0.00000000E+00
  0.00000000E+00  0.00000000E+00  0.00000000E+00
