Al10, -26.37452809 <s> Ag </s>          
   1.00000000000000     
    18.1046299125769288    0.0000000000000000    0.0000000000000000
     0.0000000000000000   18.1046299125769288    0.0000000000000000
     0.0000000000000000    0.0000000000000000   18.1046299125769288
   Ag
    10
Direct
  0.6450947669758921  0.5437418554783254  0.4160259052475003
  0.6697839818256441  0.4892824661062107  0.5844649002016473
  0.5598992806281149  0.5894270103482949  0.5322268760763971
  0.4968303639662328  0.5531084934954393  0.3886044540288044
  0.4461983491175178  0.6063440381693662  0.6297635713901333
  0.5257750332751036  0.4742178165159381  0.6289984890656358
  0.3484074268627038  0.5440579783995620  0.3827466932282415
  0.4467316489040817  0.3665477687047631  0.5535910460816407
  0.4172166916832981  0.5118641855628047  0.5125155161538837
  0.5600604584091073  0.4382634612755572  0.4836356295448033
 
  0.00000000E+00  0.00000000E+00  0.00000000E+00
  0.00000000E+00  0.00000000E+00  0.00000000E+00
  0.00000000E+00  0.00000000E+00  0.00000000E+00
  0.00000000E+00  0.00000000E+00  0.00000000E+00
  0.00000000E+00  0.00000000E+00  0.00000000E+00
  0.00000000E+00  0.00000000E+00  0.00000000E+00
  0.00000000E+00  0.00000000E+00  0.00000000E+00
  0.00000000E+00  0.00000000E+00  0.00000000E+00
  0.00000000E+00  0.00000000E+00  0.00000000E+00
  0.00000000E+00  0.00000000E+00  0.00000000E+00
