Mo12, -836.0 <s> Cu </s>                
   1.00000000000000     
    18.2953299999999999    0.0000000000000000    0.0000000000000000
     0.0000000000000000   18.2953299999999999    0.0000000000000000
     0.0000000000000000    0.0000000000000000   18.2953299999999999
   Cu
    12
Direct
  0.5986389089042647  0.5938002238961542  0.4592863298521295
  0.3641747991427349  0.5414817345633687  0.4976814379313226
  0.4063750180013110  0.4257300866657191  0.5407025677957593
  0.5548446048849680  0.4946716635299301  0.3867194760097997
  0.6238759390184828  0.4744746201863557  0.5055803987596315
  0.5189689647838415  0.3935465249582696  0.4702815900074538
  0.4203761842227245  0.4644932251231573  0.4081751144334385
  0.5316553708028291  0.4312380727774245  0.6006882860137975
  0.4958758698906890  0.5237503854915997  0.5066272126738439
  0.4383786585462662  0.5190489229602410  0.6260504297695254
  0.4630621007334411  0.5872131485421812  0.3947956952125684
  0.5837735810684334  0.5505513843209778  0.6034114510638274
 
  0.00000000E+00  0.00000000E+00  0.00000000E+00
  0.00000000E+00  0.00000000E+00  0.00000000E+00
  0.00000000E+00  0.00000000E+00  0.00000000E+00
  0.00000000E+00  0.00000000E+00  0.00000000E+00
  0.00000000E+00  0.00000000E+00  0.00000000E+00
  0.00000000E+00  0.00000000E+00  0.00000000E+00
  0.00000000E+00  0.00000000E+00  0.00000000E+00
  0.00000000E+00  0.00000000E+00  0.00000000E+00
  0.00000000E+00  0.00000000E+00  0.00000000E+00
  0.00000000E+00  0.00000000E+00  0.00000000E+00
  0.00000000E+00  0.00000000E+00  0.00000000E+00
  0.00000000E+00  0.00000000E+00  0.00000000E+00
