Mo12, -836.0 <s> Cu </s>
  1.00000000000000
    18.29533000000000     0.00000000000000     0.00000000000000
     0.00000000000000    18.29533000000000     0.00000000000000
     0.00000000000000     0.00000000000000    18.29533000000000
  Cu    
  12    
Direct
     0.60691352737366      0.58414726172062      0.45336151041030   
     0.35945906236142      0.52990279052054      0.49367929230953   
     0.39812432139248      0.42970639483506      0.54617755486965   
     0.55702275832330      0.50322219814236      0.38088029274236   
     0.63040230537157      0.48062591654936      0.50835116980285   
     0.51516982939451      0.41282903863755      0.47582235440749   
     0.41347047037716      0.47176562689431      0.40426540751054   
     0.53220861574495      0.43517920960121      0.61051926467787   
     0.49492843254265      0.52915253684942      0.50809426305234   
     0.43764968846496      0.50581756520324      0.62945617286131   
     0.46408555170797      0.57832129610962      0.38482952409687   
     0.59056543694536      0.53933015795210      0.60456318278197   
