Ta13, -695.0 <s> Pd </s>                
   1.00000000000000     
    18.6221619999999994    0.0000000000000000    0.0000000000000000
     0.0000000000000000   18.6221619999999994    0.0000000000000000
     0.0000000000000000    0.0000000000000000   18.6221619999999994
   Pd
    13
Direct
  0.5016201940710170  0.6452281232375777  0.4927023704138804
  0.4810619290898154  0.5192228469764154  0.5579624030824846
  0.6059800936437826  0.5736100127585605  0.4277369733100035
  0.4365080843809481  0.4049358580857565  0.6353932570183067
  0.3910183056983290  0.4235250887426049  0.5032967129857283
  0.3835283485564162  0.4711001845761595  0.3709205288743542
  0.5113697056503320  0.4667683916625141  0.4326895680815416
  0.6329500045580477  0.4541373605761199  0.5040756005164944
  0.5228557854132414  0.3629203494878584  0.5316377442559460
  0.4730143072829095  0.5845651432874268  0.3666811453624443
  0.5739517999917640  0.4480934967477078  0.6345899546949875
  0.3781892391239882  0.5676749605503352  0.4729723167775528
  0.6079522025394090  0.5782181833109563  0.5693414262518335
 
  0.00000000E+00  0.00000000E+00  0.00000000E+00
  0.00000000E+00  0.00000000E+00  0.00000000E+00
  0.00000000E+00  0.00000000E+00  0.00000000E+00
  0.00000000E+00  0.00000000E+00  0.00000000E+00
  0.00000000E+00  0.00000000E+00  0.00000000E+00
  0.00000000E+00  0.00000000E+00  0.00000000E+00
  0.00000000E+00  0.00000000E+00  0.00000000E+00
  0.00000000E+00  0.00000000E+00  0.00000000E+00
  0.00000000E+00  0.00000000E+00  0.00000000E+00
  0.00000000E+00  0.00000000E+00  0.00000000E+00
  0.00000000E+00  0.00000000E+00  0.00000000E+00
  0.00000000E+00  0.00000000E+00  0.00000000E+00
  0.00000000E+00  0.00000000E+00  0.00000000E+00
