Ag21, -678.0 <s> Ag </s>                
   1.00000000000000     
    20.7879250000000013    0.0000000000000000    0.0000000000000000
     0.0000000000000000   20.7879250000000013    0.0000000000000000
     0.0000000000000000    0.0000000000000000   20.7879250000000013
   Ag
    21
Direct
  0.5715364373060023  0.5034469873389394  0.4976825812570387
  0.4798645046086996  0.5917718668450466  0.4487913926564235
  0.4491266158313639  0.4638577930558909  0.5014360450142190
  0.4509386016017037  0.6670204676984344  0.5546880885829740
  0.5795445377794429  0.6285156055959450  0.5362583342795549
  0.3686673835802625  0.5593747791893716  0.5455911143475297
  0.3252164752409651  0.4271221393423668  0.5046255992304657
  0.3633534129278896  0.6523153709646285  0.4480159731573794
  0.6012126627864680  0.5783211463611100  0.3910835672954095
  0.3740276728545821  0.5192883940331310  0.4065322124216048
  0.4919960034513146  0.5492718275470579  0.6099492441053520
  0.5071921597083042  0.4777996018335570  0.3733337157043805
  0.6237995829952325  0.5171183804093940  0.6216474270581694
  0.5337702252803075  0.4155571020395191  0.6011298959607210
  0.6541284658054046  0.4095831089612044  0.5330090170043282
  0.6916450921276714  0.5506152701392767  0.4987055885328885
  0.6395963236802408  0.4477081062943128  0.3973620513480177
  0.5417952648179516  0.3730489129488850  0.4613439496257666
  0.4152779076823391  0.3807923727774310  0.4033734532213289
  0.4028295041835627  0.4485034377670107  0.6249994839056926
  0.4344811657503044  0.3389673288574946  0.5404412652907687
 
  0.00000000E+00  0.00000000E+00  0.00000000E+00
  0.00000000E+00  0.00000000E+00  0.00000000E+00
  0.00000000E+00  0.00000000E+00  0.00000000E+00
  0.00000000E+00  0.00000000E+00  0.00000000E+00
  0.00000000E+00  0.00000000E+00  0.00000000E+00
  0.00000000E+00  0.00000000E+00  0.00000000E+00
  0.00000000E+00  0.00000000E+00  0.00000000E+00
  0.00000000E+00  0.00000000E+00  0.00000000E+00
  0.00000000E+00  0.00000000E+00  0.00000000E+00
  0.00000000E+00  0.00000000E+00  0.00000000E+00
  0.00000000E+00  0.00000000E+00  0.00000000E+00
  0.00000000E+00  0.00000000E+00  0.00000000E+00
  0.00000000E+00  0.00000000E+00  0.00000000E+00
  0.00000000E+00  0.00000000E+00  0.00000000E+00
  0.00000000E+00  0.00000000E+00  0.00000000E+00
  0.00000000E+00  0.00000000E+00  0.00000000E+00
  0.00000000E+00  0.00000000E+00  0.00000000E+00
  0.00000000E+00  0.00000000E+00  0.00000000E+00
  0.00000000E+00  0.00000000E+00  0.00000000E+00
  0.00000000E+00  0.00000000E+00  0.00000000E+00
  0.00000000E+00  0.00000000E+00  0.00000000E+00
