Pt34, -162.42053363 <s> Ag </s>         
   1.00000000000000     
    23.8744246089068497    0.0000000000000000    0.0000000000000000
     0.0000000000000000   23.8744246089068497    0.0000000000000000
     0.0000000000000000    0.0000000000000000   23.8744246089068497
   Ag
    34
Direct
  0.6430167200365733  0.5581234119916485  0.4345429857146947
  0.3861969929823165  0.5186905835166364  0.5965437959469855
  0.4898319556481073  0.5867054369499017  0.3103810068507706
  0.5381727594557599  0.6400118078686023  0.5431711827324242
  0.6257296426411316  0.4843296443386516  0.5796375032855725
  0.4412840820457058  0.5924335547852787  0.5057376856946056
  0.6889342139529169  0.5855403841733049  0.5396625470857120
  0.6358501746229892  0.6723156070645567  0.5981368482559526
  0.6587792944525089  0.3386311181024586  0.4131394447267751
  0.6133285840962874  0.4432739464655158  0.4358487726839042
  0.5551350689964660  0.5114796627447480  0.3649392202143284
  0.3374481148514644  0.6171967082072328  0.5560108044329105
  0.4527635914543654  0.5474689244915942  0.6964415443701643
  0.3480648031044299  0.5941028067134647  0.6761721299521365
  0.4446054980678261  0.3565777662595143  0.4863007420488695
  0.6299241451566386  0.6653600650231409  0.4779681698257754
  0.4435048856321039  0.4688741307375272  0.5071024484473905
  0.3461558242852039  0.5268534733764216  0.4801392422365608
  0.3444813323782121  0.4140480075482826  0.5184220135698409
  0.7089443720016475  0.4811836055035692  0.4977292766660512
  0.5065258307974506  0.5215272653367954  0.5932000458781810
  0.6502472334061876  0.3809214510575519  0.5239747878199604
  0.5514284611597484  0.6163141614723819  0.6570804659612256
  0.5530885395119548  0.3430467927674175  0.4542818625983592
  0.4416938371322435  0.6312529399651174  0.6143374469488527
  0.3899423023348298  0.4333410928544314  0.4085708842350577
  0.4513437335814879  0.4715212292244892  0.3152565531203549
  0.5424962010278185  0.5238109291724654  0.4832438372156124
  0.5325942968805082  0.6205963046229395  0.4205061024103324
  0.5389353424459515  0.4151325529940234  0.5439193250789010
  0.5733909967519727  0.5006674898112621  0.6840521971015873
  0.5397559709808960  0.5767135869603445  0.7651258271630266
  0.6611051908919977  0.5701541662028494  0.6507602329086041
  0.4449679922767565  0.5383671082043135  0.4058048890942454
 
  0.00000000E+00  0.00000000E+00  0.00000000E+00
  0.00000000E+00  0.00000000E+00  0.00000000E+00
  0.00000000E+00  0.00000000E+00  0.00000000E+00
  0.00000000E+00  0.00000000E+00  0.00000000E+00
  0.00000000E+00  0.00000000E+00  0.00000000E+00
  0.00000000E+00  0.00000000E+00  0.00000000E+00
  0.00000000E+00  0.00000000E+00  0.00000000E+00
  0.00000000E+00  0.00000000E+00  0.00000000E+00
  0.00000000E+00  0.00000000E+00  0.00000000E+00
  0.00000000E+00  0.00000000E+00  0.00000000E+00
  0.00000000E+00  0.00000000E+00  0.00000000E+00
  0.00000000E+00  0.00000000E+00  0.00000000E+00
  0.00000000E+00  0.00000000E+00  0.00000000E+00
  0.00000000E+00  0.00000000E+00  0.00000000E+00
  0.00000000E+00  0.00000000E+00  0.00000000E+00
  0.00000000E+00  0.00000000E+00  0.00000000E+00
  0.00000000E+00  0.00000000E+00  0.00000000E+00
  0.00000000E+00  0.00000000E+00  0.00000000E+00
  0.00000000E+00  0.00000000E+00  0.00000000E+00
  0.00000000E+00  0.00000000E+00  0.00000000E+00
  0.00000000E+00  0.00000000E+00  0.00000000E+00
  0.00000000E+00  0.00000000E+00  0.00000000E+00
  0.00000000E+00  0.00000000E+00  0.00000000E+00
  0.00000000E+00  0.00000000E+00  0.00000000E+00
  0.00000000E+00  0.00000000E+00  0.00000000E+00
  0.00000000E+00  0.00000000E+00  0.00000000E+00
  0.00000000E+00  0.00000000E+00  0.00000000E+00
  0.00000000E+00  0.00000000E+00  0.00000000E+00
  0.00000000E+00  0.00000000E+00  0.00000000E+00
  0.00000000E+00  0.00000000E+00  0.00000000E+00
  0.00000000E+00  0.00000000E+00  0.00000000E+00
  0.00000000E+00  0.00000000E+00  0.00000000E+00
  0.00000000E+00  0.00000000E+00  0.00000000E+00
  0.00000000E+00  0.00000000E+00  0.00000000E+00
