Pt13, -57.35718158 <s> Pd </s>          
   1.00000000000000     
    18.4470149908745000    0.0000000000000000    0.0000000000000000
     0.0000000000000000   18.4470149908745000    0.0000000000000000
     0.0000000000000000    0.0000000000000000   18.4470149908745000
   Pd
    13
Direct
  0.4070500917564694  0.6403199364737806  0.4184003578503916
  0.3950307684152538  0.5819213014153383  0.5431971630904578
  0.3725488341129619  0.5141361306047373  0.6621348252728352
  0.5403809819133978  0.6032400208556642  0.4163151931310409
  0.5191775171662287  0.5236613000705969  0.5269622656790165
  0.6703963338166410  0.5575035395128582  0.4010957861544930
  0.4258226384739990  0.5013250020440517  0.4152867139575480
  0.3856072179452564  0.4388012324282698  0.5420525449861926
  0.4901796674997738  0.4429218381149123  0.6340080068899752
  0.4823592110855713  0.3757363908941369  0.4591184750824565
  0.5645204338144114  0.4643386996096199  0.3845691571697961
  0.5728303050018155  0.3583227540839847  0.5613122583217509
  0.6399052515255207  0.4638048005008117  0.5015978995794991
 
  0.00000000E+00  0.00000000E+00  0.00000000E+00
  0.00000000E+00  0.00000000E+00  0.00000000E+00
  0.00000000E+00  0.00000000E+00  0.00000000E+00
  0.00000000E+00  0.00000000E+00  0.00000000E+00
  0.00000000E+00  0.00000000E+00  0.00000000E+00
  0.00000000E+00  0.00000000E+00  0.00000000E+00
  0.00000000E+00  0.00000000E+00  0.00000000E+00
  0.00000000E+00  0.00000000E+00  0.00000000E+00
  0.00000000E+00  0.00000000E+00  0.00000000E+00
  0.00000000E+00  0.00000000E+00  0.00000000E+00
  0.00000000E+00  0.00000000E+00  0.00000000E+00
  0.00000000E+00  0.00000000E+00  0.00000000E+00
  0.00000000E+00  0.00000000E+00  0.00000000E+00
