Au12, -990.0 <s> Cu </s>                
   1.00000000000000     
    20.7621119999999983    0.0000000000000000    0.0000000000000000
     0.0000000000000000   20.7621119999999983    0.0000000000000000
     0.0000000000000000    0.0000000000000000   20.7621119999999983
   Cu
    12
Direct
  0.5035557922659253  0.4507191538797535  0.3830381868827002
  0.5000366769806003  0.4497016206937194  0.4981616187205567
  0.4976589036194423  0.4469235135499999  0.6116623268271879
  0.5052202526922156  0.5506286849218347  0.3306137550896702
  0.5010200563395369  0.5518201266928767  0.4444090316333320
  0.4991330468332693  0.5501762486126268  0.5614985178315332
  0.4958287226478137  0.6500491729817519  0.6172481922781143
  0.4998637430498154  0.6520434168980047  0.5054231019708710
  0.5032118355636984  0.6527242809771360  0.3912589025688399
  0.5004129660138685  0.3498177206712657  0.4383633823004326
  0.4992359424193580  0.3474708152680792  0.5524166495839624
  0.4948220615744494  0.3479252511235408  0.6659063217716704
 
  0.00000000E+00  0.00000000E+00  0.00000000E+00
  0.00000000E+00  0.00000000E+00  0.00000000E+00
  0.00000000E+00  0.00000000E+00  0.00000000E+00
  0.00000000E+00  0.00000000E+00  0.00000000E+00
  0.00000000E+00  0.00000000E+00  0.00000000E+00
  0.00000000E+00  0.00000000E+00  0.00000000E+00
  0.00000000E+00  0.00000000E+00  0.00000000E+00
  0.00000000E+00  0.00000000E+00  0.00000000E+00
  0.00000000E+00  0.00000000E+00  0.00000000E+00
  0.00000000E+00  0.00000000E+00  0.00000000E+00
  0.00000000E+00  0.00000000E+00  0.00000000E+00
  0.00000000E+00  0.00000000E+00  0.00000000E+00
