Sc11, -711.0 <s> Ni </s>                
   1.00000000000000     
    18.0509549999999983    0.0000000000000000    0.0000000000000000
     0.0000000000000000   18.0509549999999983    0.0000000000000000
     0.0000000000000000    0.0000000000000000   18.0509549999999983
   Ni
    11
Direct
  0.3591931093926345  0.5234082893803377  0.4734285255936053
  0.5247415517019834  0.3751451695975773  0.5094736196533789
  0.4124190372824775  0.4278837425838378  0.5551334241181806
  0.5663480906945753  0.4270423640753665  0.3935575147691908
  0.6078537776756662  0.4752076372547527  0.5070027923884608
  0.5250817082369645  0.4699320562165090  0.6056317563966620
  0.4603733365121997  0.6126621279631191  0.4582626759253195
  0.4339842400391716  0.5556682214105568  0.5730983315090817
  0.5726176332484290  0.5584919510644842  0.4132129776436881
  0.4816875254455358  0.4878441996600568  0.4674676845717736
  0.5556999897703561  0.5867142019380117  0.5437307103824686
 
  0.00000000E+00  0.00000000E+00  0.00000000E+00
  0.00000000E+00  0.00000000E+00  0.00000000E+00
  0.00000000E+00  0.00000000E+00  0.00000000E+00
  0.00000000E+00  0.00000000E+00  0.00000000E+00
  0.00000000E+00  0.00000000E+00  0.00000000E+00
  0.00000000E+00  0.00000000E+00  0.00000000E+00
  0.00000000E+00  0.00000000E+00  0.00000000E+00
  0.00000000E+00  0.00000000E+00  0.00000000E+00
  0.00000000E+00  0.00000000E+00  0.00000000E+00
  0.00000000E+00  0.00000000E+00  0.00000000E+00
  0.00000000E+00  0.00000000E+00  0.00000000E+00
