Sc11, -711.0 <s> Ni </s>                
   1.00000000000000     
    18.0509549999999983    0.0000000000000000    0.0000000000000000
     0.0000000000000000   18.0509549999999983    0.0000000000000000
     0.0000000000000000    0.0000000000000000   18.0509549999999983
   Ni
    11
Direct
  0.3655718454548832  0.4651057591608989  0.4481521976143093
  0.4974132626575416  0.3525091778055415  0.4957747658199678
  0.3883015412437975  0.4108156667168142  0.5964237129330171
  0.5218573482376704  0.4659135008565584  0.3575044561853443
  0.6415909784336593  0.4594454912019781  0.4913487175010592
  0.5359234191338523  0.4559800019896200  0.6360768956006715
  0.4567172220231112  0.6198007339845466  0.4244000068714967
  0.4044897394487716  0.5691164661167860  0.5898231583805130
  0.6119598204615045  0.5890213873021005  0.4034962648638697
  0.4992747522156487  0.5003319319386738  0.4993486655273717
  0.5769000706895591  0.6119598440710780  0.5576511716541880
 
  0.00000000E+00  0.00000000E+00  0.00000000E+00
  0.00000000E+00  0.00000000E+00  0.00000000E+00
  0.00000000E+00  0.00000000E+00  0.00000000E+00
  0.00000000E+00  0.00000000E+00  0.00000000E+00
  0.00000000E+00  0.00000000E+00  0.00000000E+00
  0.00000000E+00  0.00000000E+00  0.00000000E+00
  0.00000000E+00  0.00000000E+00  0.00000000E+00
  0.00000000E+00  0.00000000E+00  0.00000000E+00
  0.00000000E+00  0.00000000E+00  0.00000000E+00
  0.00000000E+00  0.00000000E+00  0.00000000E+00
  0.00000000E+00  0.00000000E+00  0.00000000E+00
