Al44, -138.99346236 <s> Ag </s>
  1.00000000000000
    22.92101332095796     0.00000000000000     0.00000000000000
     0.00000000000000    22.92101332095796     0.00000000000000
     0.00000000000000     0.00000000000000    22.92101332095796
  Ag    
  44    
Direct
     0.38543374589414      0.45598742501497      0.34912640222542   
     0.29966053431296      0.48512725275318      0.42840956256623   
     0.37037767015986      0.67659625874133      0.46743930644973   
     0.28379656894424      0.59265326779004      0.47099644574143   
     0.50495359783475      0.72017859437039      0.51494742952038   
     0.40133903051076      0.54945608449618      0.44008176130389   
     0.49183409961287      0.45319763517352      0.40981278115074   
     0.47227104133477      0.64297537306958      0.41279955626679   
     0.46726535762654      0.54600245718560      0.33561421434005   
     0.58619267709123      0.68207111410678      0.44012798164220   
     0.61034847992369      0.44536358009642      0.44625691451941   
     0.65318693126317      0.52919354369753      0.52968690887821   
     0.33178052923502      0.61880912934389      0.57416228389940   
     0.39073073174998      0.65201465987255      0.67194751806499   
     0.43065112389015      0.34953983679898      0.38637525792633   
     0.34364782021352      0.50190740515238      0.54345450051398   
     0.38792177952055      0.41497353063878      0.47699781619354   
     0.40258920334186      0.72041132572112      0.57467663750345   
     0.41572599714011      0.54002747619403      0.62693432036170   
     0.43977214767092      0.41559415692045      0.60188551689362   
     0.45519601117129      0.61077240893111      0.53370081942090   
     0.49038423012093      0.35928252822077      0.49846977537889   
     0.47638504805019      0.49662322135972      0.52292590721677   
     0.47105704299733      0.35801749563968      0.70450270233480   
     0.50675474339593      0.66765153811123      0.63064557044601   
     0.57836647832005      0.49695830001099      0.33557433158151   
     0.55167907440306      0.34516100203653      0.39134612871187   
     0.48014581293083      0.59101152790964      0.71996490387873   
     0.57315760630099      0.61559845081978      0.34393368699207   
     0.55566522592918      0.55693663652125      0.45412003115997   
     0.47593870432469      0.47692140040429      0.70943161444576   
     0.53425364879526      0.32892872320370      0.60376047370026   
     0.67209106370405      0.54459644346916      0.40481971284465   
     0.57562378578670      0.41749972654016      0.67683239719988   
     0.58839464698541      0.63085719470721      0.55489993008817   
     0.57668767577443      0.43392067805204      0.55767774324067   
     0.54908840364961      0.53720155372795      0.61973806216237   
     0.64544826553745      0.39870981067147      0.34058788411647   
     0.68499700786790      0.63597290211635      0.48479310561908   
     0.60967037508364      0.32925560009233      0.49806809010344   
     0.72806413844335      0.43847310659212      0.41587145014439   
     0.65690246966058      0.34007501458781      0.61213362356331   
     0.66899440249597      0.47124619271490      0.63113506605728   
     0.70178906023807      0.40921134575927      0.52659537288318   
