Ti12, -72.23632228 <s> Pd </s>          
   1.00000000000000     
    18.5518327869904205    0.0000000000000000    0.0000000000000000
     0.0000000000000000   18.5518327869904205    0.0000000000000000
     0.0000000000000000    0.0000000000000000   18.5518327869904205
   Pd
    12
Direct
  0.3926347474005170  0.4432157544899493  0.5138999309027099
  0.5021342404871312  0.4012485386559111  0.4234367243699507
  0.3750730543277404  0.4304118557604705  0.3763036970408888
  0.5453098183598427  0.4921480932519001  0.3299547832714479
  0.5810375551029372  0.5311932593430990  0.4588303094109564
  0.4726854513091640  0.5723368314919115  0.5504354581842681
  0.4282215239564200  0.4811034002903005  0.6430293899700822
  0.6001761401049865  0.5417709417216916  0.5965504246439109
  0.4435726583891715  0.5455072705759280  0.4077456746354056
  0.3433510324342984  0.5710663762004721  0.5005453349190789
  0.6322815662793487  0.4043338573235114  0.4730590760236227
  0.5303064971015644  0.4276209858631970  0.5654701108898678
 
  0.00000000E+00  0.00000000E+00  0.00000000E+00
  0.00000000E+00  0.00000000E+00  0.00000000E+00
  0.00000000E+00  0.00000000E+00  0.00000000E+00
  0.00000000E+00  0.00000000E+00  0.00000000E+00
  0.00000000E+00  0.00000000E+00  0.00000000E+00
  0.00000000E+00  0.00000000E+00  0.00000000E+00
  0.00000000E+00  0.00000000E+00  0.00000000E+00
  0.00000000E+00  0.00000000E+00  0.00000000E+00
  0.00000000E+00  0.00000000E+00  0.00000000E+00
  0.00000000E+00  0.00000000E+00  0.00000000E+00
  0.00000000E+00  0.00000000E+00  0.00000000E+00
  0.00000000E+00  0.00000000E+00  0.00000000E+00
