Al40, -126.19050908 <s> Ag </s>
  1.00000000000000
    22.71664390998137     0.00000000000000     0.00000000000000
     0.00000000000000    22.71664390998137     0.00000000000000
     0.00000000000000     0.00000000000000    22.71664390998137
  Ag    
  40    
Direct
     0.68031712109118      0.42836085432216      0.36883815293154   
     0.71378576846719      0.36798238497608      0.46580949762086   
     0.56596974230790      0.45054152455349      0.33952828404220   
     0.54855815396767      0.56675256704789      0.29799973520734   
     0.64231629209481      0.54518788399447      0.37995967731587   
     0.67755598598616      0.48416494076184      0.48228720038459   
     0.59439420330790      0.38705090309022      0.45076080235081   
     0.48201385145407      0.40310723714086      0.41189087846572   
     0.71199517575410      0.42061899446746      0.58328650026231   
     0.46489786248197      0.51845341664781      0.37493113170733   
     0.55057608087455      0.61806117432405      0.41271840642957   
     0.63573838942556      0.32925822871181      0.55406580962182   
     0.55353428349963      0.50183123655714      0.46199244273529   
     0.51554864815734      0.34560771760610      0.54391194291404   
     0.64210094963326      0.60052886222974      0.49191852023532   
     0.40792030273491      0.35212681999249      0.48619424073998   
     0.38432191203057      0.46993444764488      0.44591822474751   
     0.45330227439958      0.63270791522846      0.33599493435456   
     0.66990443024933      0.53305652817020      0.59986543413706   
     0.58567269985952      0.44465073871367      0.56857328103767   
     0.45562791299732      0.45851642941410      0.54459982455020   
     0.32589659167607      0.41742245198608      0.54354005113464   
     0.45546018765284      0.69447177384355      0.44192443016485   
     0.27475545317510      0.50500725196899      0.48235902605867   
     0.54769198741660      0.56131877096180      0.57400535179888   
     0.63210770532720      0.65154935529237      0.60015958700125   
     0.46027159640028      0.57524416997867      0.48963595655483   
     0.36393980389756      0.59114210460177      0.41425514908124   
     0.40562500939162      0.33257244484789      0.60858081435107   
     0.54467741259329      0.67603142337250      0.52247964706608   
     0.49666855898346      0.41176176505922      0.65158852686582   
     0.56979004448471      0.50350114658754      0.68058119432520   
     0.36917532289217      0.68465360428229      0.52277762909916   
     0.64675392241612      0.59625081539480      0.70864717301112   
     0.36582384147672      0.54792200201884      0.56348944166074   
     0.45272776010410      0.53665923780095      0.65693238381954   
     0.53140653752653      0.62567517743257      0.68090814737955   
     0.27795813987443      0.61738200072355      0.49645087683085   
     0.44896616633204      0.64705330869732      0.59857809187188   
     0.37763163185010      0.44909228131253      0.64611294904130   
