Pd10, -1280.268205 <s> Cu </s>          
   1.00000000000000     
    17.3825152199999984    0.0000000000000000    0.0000000000000000
     0.0000000000000000   17.3825152199999984    0.0000000000000000
     0.0000000000000000    0.0000000000000000   17.3825152199999984
   Cu
    10
Direct
  0.3891478847677763  0.4640660470554432  0.5590448237164032
  0.5000000000000000  0.3833549145766039  0.5590304655460762
  0.6108521152322235  0.4640660470554432  0.5590448237164032
  0.5685775021207828  0.5944783914348870  0.5590577366195216
  0.4314224978792170  0.5944783914348870  0.5590577366195216
  0.3891478847677763  0.5359339529445567  0.4409551762835968
  0.4314224978792170  0.4055216085651129  0.4409422633804783
  0.5685775021207828  0.4055216085651129  0.4409422633804783
  0.6108521152322235  0.5359339529445567  0.4409551762835968
  0.5000000000000000  0.6166450854233960  0.4409695344539237
 
  0.00000000E+00  0.00000000E+00  0.00000000E+00
  0.00000000E+00  0.00000000E+00  0.00000000E+00
  0.00000000E+00  0.00000000E+00  0.00000000E+00
  0.00000000E+00  0.00000000E+00  0.00000000E+00
  0.00000000E+00  0.00000000E+00  0.00000000E+00
  0.00000000E+00  0.00000000E+00  0.00000000E+00
  0.00000000E+00  0.00000000E+00  0.00000000E+00
  0.00000000E+00  0.00000000E+00  0.00000000E+00
  0.00000000E+00  0.00000000E+00  0.00000000E+00
  0.00000000E+00  0.00000000E+00  0.00000000E+00
