Al51, -162.5472677 <s> Ag </s>
  1.00000000000000
    23.30841954708821     0.00000000000000     0.00000000000000
     0.00000000000000    23.30841954708821     0.00000000000000
     0.00000000000000     0.00000000000000    23.30841954708821
  Ag    
  51    
Direct
     0.38179778408810      0.48750780432519      0.69010883254787   
     0.36790337039759      0.59209296699100      0.63134011226153   
     0.50585414436023      0.46660730451460      0.69354694029453   
     0.35981554302721      0.68719249362359      0.55811571161633   
     0.35068025310079      0.41347621255193      0.58750655724464   
     0.46840608967937      0.58052372241293      0.69418713154982   
     0.32124948123589      0.61577770553095      0.47189434891228   
     0.63894561599285      0.45073518935891      0.67492264792052   
     0.33997206863598      0.51784726839605      0.53403141124552   
     0.54617589071392      0.67453170911517      0.69679989362019   
     0.45634789570070      0.67671980302501      0.62071803595849   
     0.46192008375238      0.37251043530527      0.58399591365474   
     0.55194422793486      0.36287977466387      0.66368696159568   
     0.44735871481928      0.50165447139044      0.59318579867189   
     0.58766952030675      0.55741817224347      0.70128583970234   
     0.46237602492358      0.76598502522759      0.53840818878149   
     0.43754688488770      0.59451084401349      0.52118225390366   
     0.66240897776395      0.34098588214627      0.62642451443826   
     0.31338336851236      0.42581645070783      0.46192634908329   
     0.55370744281734      0.46222099473835      0.57993484942803   
     0.41618221841503      0.69824508665392      0.45238423040337   
     0.57127079226247      0.72887348451824      0.59395422770867   
     0.54417127770255      0.59970740166767      0.59755377456229   
     0.37275860143196      0.63117133316183      0.36715749504650   
     0.37601746621024      0.33402538480423      0.49619046168952   
     0.65401481606506      0.65663489873370      0.64881815748992   
     0.43855014313604      0.44655341189608      0.49350532633248   
     0.54718043852127      0.54343566259510      0.49346312109824   
     0.52841058966884      0.67070977697036      0.49682542126418   
     0.66617807182474      0.43639122162823      0.55411826789742   
     0.65129703106924      0.54413929363649      0.59980465359313   
     0.38255161822485      0.51800633418129      0.41500762530872   
     0.57420168000485      0.42659323270343      0.46539986868994   
     0.48392685636486      0.60651089383121      0.40878546729799   
     0.57145105670686      0.34072020702866      0.54714115272720   
     0.40599473347211      0.39438142603930      0.39050917371159   
     0.48696688007102      0.32935099343181      0.46423125864044   
     0.63826300536452      0.64298087128473      0.52922979504192   
     0.49889063242957      0.48758431059546      0.39588044319668   
     0.44017376042121      0.56157584796796      0.30574219063297   
     0.69456893665930      0.42198631843611      0.43686230523094   
     0.67476264138569      0.53446966720222      0.48033886303306   
     0.52259118894178      0.37258859834108      0.36037306870376   
     0.60731645009550      0.61770854247136      0.41599819936221   
     0.68378599880042      0.32422592674584      0.51144691188113   
     0.44905784107239      0.44518531787766      0.29437311590121   
     0.55756550173093      0.57431557876317      0.31556574278938   
     0.56712203036702      0.45826428397067      0.28596544989468   
     0.60304717668891      0.31204168206234      0.42596438813575   
     0.62202093743085      0.49992183296946      0.38423984164945   
     0.64209163960119      0.38301014886104      0.33681113386126   
