Au35, -92.21813232 <s> Ag </s>
  1.00000000000000
    21.90135514887782     0.00000000000000     0.00000000000000
     0.00000000000000    21.90135514887782     0.00000000000000
     0.00000000000000     0.00000000000000    21.90135514887782
  Ag    
  35    
Direct
     0.68186372495332      0.52612712934284      0.37868613313290   
     0.61910421842300      0.43004829925377      0.32738523652860   
     0.66390221900276      0.53822842030015      0.50224049014311   
     0.65346352183641      0.42200460069367      0.44678241423654   
     0.67385433018155      0.43178222339032      0.56811670144961   
     0.61133322657936      0.62060113659123      0.42162307606066   
     0.56625671434655      0.54445890650800      0.33152230482283   
     0.60826906360422      0.52650837526468      0.61530986792566   
     0.58525391958566      0.35349322479748      0.52697056651341   
     0.59307363537271      0.63133999412537      0.54550318825826   
     0.55231847462133      0.35447201896205      0.40574541610387   
     0.57881081418046      0.40748727527849      0.64469842539779   
     0.53710186382316      0.71083416429540      0.46724381469648   
     0.49535838307314      0.63737025352393      0.37342423440526   
     0.53111832662187      0.61796482098360      0.65430825957589   
     0.50734346443494      0.30852480849483      0.61351323621100   
     0.50493317402540      0.50081156602544      0.68518522718528   
     0.46546082230303      0.66703475566740      0.56139234276608   
     0.49548787041887      0.43633159317020      0.32433385233268   
     0.44527903498494      0.54891184370555      0.30125825320838   
     0.48969519577005      0.45454513618720      0.45976333911844   
     0.41118536678029      0.57792437982997      0.63560265547665   
     0.49478488040532      0.53889323490190      0.54270897567486   
     0.47010605860252      0.38137451199903      0.70659740950615   
     0.46455087093047      0.32772282105967      0.49964449627006   
     0.38268048245408      0.46825610785008      0.68789253701410   
     0.41364062069510      0.69554146418598      0.45010593781515   
     0.37481508426341      0.59195816453877      0.39453517028321   
     0.42633519848829      0.35067957634986      0.38442118368209   
     0.38127960079790      0.46748375747190      0.37178459485084   
     0.40225678745374      0.37983974324883      0.59811525093148   
     0.36470386028548      0.60261909370940      0.52034226393807   
     0.34334019754351      0.48967712445881      0.57279989379987   
     0.36466033399287      0.40496630133257      0.48166849155445   
     0.30285526265887      0.51224368850284      0.45825378542333   
