Pt13, -57.17035892 <s> Pd </s>          
   1.00000000000000     
    18.7464913711824899    0.0000000000000000    0.0000000000000000
     0.0000000000000000   18.7464913711824899    0.0000000000000000
     0.0000000000000000    0.0000000000000000   18.7464913711824899
   Pd
    13
Direct
  0.5293400883971011  0.4048217869781785  0.3459698199068037
  0.4198181848391084  0.4848650785714637  0.3694319696132037
  0.5914121428820401  0.3789866529582575  0.4642390543515959
  0.4014565460030272  0.4705238663091797  0.5049672779879872
  0.3228811457970752  0.5590527874192482  0.4348431063847050
  0.4036366697662452  0.4639649870638711  0.6409733482212524
  0.5136619548452147  0.4208173543864185  0.5718173586072806
  0.6526893405932290  0.4113846586767563  0.5809013036822465
  0.5386361877082638  0.5015777475124467  0.4471719058940584
  0.4518200503373568  0.6066155418681753  0.4458232848627932
  0.6096768123349111  0.5375110982426582  0.5559509303332660
  0.4729951544018948  0.5669539117287188  0.5830398617259427
  0.5562782562877261  0.6569430651195349  0.5192108485006212
 
  0.00000000E+00  0.00000000E+00  0.00000000E+00
  0.00000000E+00  0.00000000E+00  0.00000000E+00
  0.00000000E+00  0.00000000E+00  0.00000000E+00
  0.00000000E+00  0.00000000E+00  0.00000000E+00
  0.00000000E+00  0.00000000E+00  0.00000000E+00
  0.00000000E+00  0.00000000E+00  0.00000000E+00
  0.00000000E+00  0.00000000E+00  0.00000000E+00
  0.00000000E+00  0.00000000E+00  0.00000000E+00
  0.00000000E+00  0.00000000E+00  0.00000000E+00
  0.00000000E+00  0.00000000E+00  0.00000000E+00
  0.00000000E+00  0.00000000E+00  0.00000000E+00
  0.00000000E+00  0.00000000E+00  0.00000000E+00
  0.00000000E+00  0.00000000E+00  0.00000000E+00
