K3, 1.89308061 <s> Ag </s>              
   1.00000000000000     
    16.5826746704916204    0.0000000000000000    0.0000000000000000
     0.0000000000000000   16.5826746704916204    0.0000000000000000
     0.0000000000000000    0.0000000000000000   16.5826746704916204
   Ag
     3
Direct
  0.3751502971826576  0.3245349410053190  0.2950037983771897
  0.3680246605532332  0.4790492399869002  0.3275446588585168
  0.3521319017456555  0.2883685201333020  0.4474460912182206
 
  0.00000000E+00  0.00000000E+00  0.00000000E+00
  0.00000000E+00  0.00000000E+00  0.00000000E+00
  0.00000000E+00  0.00000000E+00  0.00000000E+00
