Pt33, -159.59569522 <s> Ag </s>         
   1.00000000000000     
    24.1059725590828187    0.0000000000000000    0.0000000000000000
     0.0000000000000000   24.1059725590828187    0.0000000000000000
     0.0000000000000000    0.0000000000000000   24.1059725590828187
   Ag
    33
Direct
  0.3555179139601446  0.5365973269966049  0.6246655717630204
  0.3781677490900574  0.4694173004550560  0.3987241983442956
  0.4761469510905863  0.6367434961774725  0.4372175327444862
  0.5102258419311553  0.4810138949810652  0.5768328742267765
  0.5493678044456382  0.5676430890329881  0.5082935971806242
  0.6745254277926948  0.4390861030754495  0.4991757436091683
  0.6327901287001367  0.5159101137522399  0.5755814433021372
  0.5001795640603751  0.4090879828165467  0.6747759006016173
  0.5800174463717519  0.4940696627542983  0.6788252125680098
  0.4435078647985358  0.5809124853861688  0.5658082176594533
  0.6478668760220327  0.5931893949116070  0.3513461414764562
  0.5436589837666425  0.5919194028181257  0.6244517195317270
  0.6512909737643977  0.5858268666918420  0.6661184762544323
  0.3620987799220077  0.5029468212511083  0.5135711048050462
  0.5311601919789941  0.7363362202682083  0.4470726648003798
  0.4553406218671052  0.5445111928453213  0.3380618245764490
  0.4423023082298989  0.4160787549418565  0.4882006713785931
  0.5586414596671130  0.5382114935309192  0.3923827658317497
  0.4976808513247877  0.3610183458417121  0.5700949949337109
  0.6019755058205887  0.6478811027467903  0.4420101143543846
  0.6019394114523454  0.4065509019040700  0.5873868216692666
  0.4920936581829795  0.4401906321771337  0.3829710695980181
  0.6555265785698352  0.5453417560032082  0.4599931461443878
  0.6334242861430955  0.6326485863670682  0.5572188042659089
  0.5541169113153287  0.5695095962282973  0.2837200746959991
  0.4071623587499698  0.4354501499008804  0.5998436487627452
  0.5613096800000511  0.4489733987780768  0.4785101154906192
  0.5684935488909338  0.3209242222681138  0.6539409975192982
  0.3742600186367158  0.5871620990783004  0.4097098063464282
  0.4592809625922600  0.5214622221459940  0.6744812626404084
  0.5203012490194125  0.6728117260970529  0.5420340842571550
  0.5105554866006652  0.4715801254396763  0.7681065637939400
  0.4594061387941032  0.5250553520018453  0.4561418586976860
 
  0.00000000E+00  0.00000000E+00  0.00000000E+00
  0.00000000E+00  0.00000000E+00  0.00000000E+00
  0.00000000E+00  0.00000000E+00  0.00000000E+00
  0.00000000E+00  0.00000000E+00  0.00000000E+00
  0.00000000E+00  0.00000000E+00  0.00000000E+00
  0.00000000E+00  0.00000000E+00  0.00000000E+00
  0.00000000E+00  0.00000000E+00  0.00000000E+00
  0.00000000E+00  0.00000000E+00  0.00000000E+00
  0.00000000E+00  0.00000000E+00  0.00000000E+00
  0.00000000E+00  0.00000000E+00  0.00000000E+00
  0.00000000E+00  0.00000000E+00  0.00000000E+00
  0.00000000E+00  0.00000000E+00  0.00000000E+00
  0.00000000E+00  0.00000000E+00  0.00000000E+00
  0.00000000E+00  0.00000000E+00  0.00000000E+00
  0.00000000E+00  0.00000000E+00  0.00000000E+00
  0.00000000E+00  0.00000000E+00  0.00000000E+00
  0.00000000E+00  0.00000000E+00  0.00000000E+00
  0.00000000E+00  0.00000000E+00  0.00000000E+00
  0.00000000E+00  0.00000000E+00  0.00000000E+00
  0.00000000E+00  0.00000000E+00  0.00000000E+00
  0.00000000E+00  0.00000000E+00  0.00000000E+00
  0.00000000E+00  0.00000000E+00  0.00000000E+00
  0.00000000E+00  0.00000000E+00  0.00000000E+00
  0.00000000E+00  0.00000000E+00  0.00000000E+00
  0.00000000E+00  0.00000000E+00  0.00000000E+00
  0.00000000E+00  0.00000000E+00  0.00000000E+00
  0.00000000E+00  0.00000000E+00  0.00000000E+00
  0.00000000E+00  0.00000000E+00  0.00000000E+00
  0.00000000E+00  0.00000000E+00  0.00000000E+00
  0.00000000E+00  0.00000000E+00  0.00000000E+00
  0.00000000E+00  0.00000000E+00  0.00000000E+00
  0.00000000E+00  0.00000000E+00  0.00000000E+00
  0.00000000E+00  0.00000000E+00  0.00000000E+00
