Al34, -106.41028173 <s> Ag </s>
  1.00000000000000
    21.55832654077738     0.00000000000000     0.00000000000000
     0.00000000000000    21.55832654077738     0.00000000000000
     0.00000000000000     0.00000000000000    21.55832654077738
  Ag    
  34    
Direct
     0.68176218755809      0.59839478303222      0.65313500500104   
     0.45071028636841      0.57915785108245      0.66851102843300   
     0.57635081175071      0.52756715220170      0.69026792019680   
     0.56221766349234      0.64629168325943      0.63425900532234   
     0.44120926759024      0.69374184484382      0.61067862059064   
     0.46475867089506      0.46620000023716      0.72680281543860   
     0.65368678095429      0.48589459475731      0.59194344059334   
     0.41816976424976      0.47060028739503      0.60405762031036   
     0.40155032874974      0.58561394383800      0.54937945144485   
     0.40070665962218      0.70328267046389      0.48916048204086   
     0.63901389729268      0.60075568853144      0.52893652153005   
     0.52795600126991      0.53447063223716      0.56645014923191   
     0.54144319253295      0.42205661051642      0.62821276962841   
     0.52165311309588      0.65318934982212      0.51295208968392   
     0.47941716089702      0.54648846518560      0.44972972043306   
     0.43328463543537      0.36053827987895      0.66480263801378   
     0.48597555790227      0.66961108164769      0.39291645943754   
     0.61618571874815      0.67759317850710      0.42113655971657   
     0.51037624302683      0.30997433241307      0.57351503332316   
     0.60355111274502      0.48854155214965      0.46840393301449   
     0.38505543332119      0.35706964903704      0.54385059571852   
     0.68997050225068      0.56816864234903      0.41535167622821   
     0.35974968930982      0.59517556365545      0.42705735510958   
     0.36451989143420      0.47963315477489      0.49194299586611   
     0.62230039804292      0.37464429721722      0.53803650003852   
     0.45732861637394      0.57237729867394      0.31933228962167   
     0.49476092759754      0.42133983607431      0.50146316645030   
     0.57566462619551      0.56869967634849      0.36126045992268   
     0.65301193649700      0.46158958256168      0.35322676092919   
     0.49364203946722      0.30117451296382      0.44982681873022   
     0.38037273715149      0.48612118594182      0.36560053942361   
     0.39550454771083      0.37300610736715      0.42068844440312   
     0.51477024346143      0.45468248229521      0.37101025223646   
     0.60084196009764      0.36463034155816      0.41611202535269   
