Ag13, -897.0 <s> Pd </s>                
   1.00000000000000     
    19.9474319999999992    0.0000000000000000    0.0000000000000000
     0.0000000000000000   19.9474319999999992    0.0000000000000000
     0.0000000000000000    0.0000000000000000   19.9474319999999992
   Pd
    13
Direct
  0.5000000000000000  0.5933797270671652  0.5950243508618287
  0.5665670371948662  0.5643459039515507  0.4839311834571216
  0.5960028166252824  0.5000000000000000  0.5968903298542388
  0.3850918726038647  0.5000000000000000  0.3777203739491383
  0.4039971833747174  0.5000000000000000  0.5968903298542388
  0.4334329628051337  0.4356540960484490  0.4839311834571216
  0.5000000000000000  0.4340494210846308  0.3673947424842426
  0.6149081273961352  0.5000000000000000  0.3777203739491383
  0.5000000000000000  0.4066202729328347  0.5950243508618287
  0.5665670371948662  0.4356540960484490  0.4839311834571216
  0.4334329628051337  0.5643459039515507  0.4839311834571216
  0.5000000000000000  0.5659505789153692  0.3673947424842426
  0.5000000000000000  0.5000000000000000  0.6902156694251590
 
  0.00000000E+00  0.00000000E+00  0.00000000E+00
  0.00000000E+00  0.00000000E+00  0.00000000E+00
  0.00000000E+00  0.00000000E+00  0.00000000E+00
  0.00000000E+00  0.00000000E+00  0.00000000E+00
  0.00000000E+00  0.00000000E+00  0.00000000E+00
  0.00000000E+00  0.00000000E+00  0.00000000E+00
  0.00000000E+00  0.00000000E+00  0.00000000E+00
  0.00000000E+00  0.00000000E+00  0.00000000E+00
  0.00000000E+00  0.00000000E+00  0.00000000E+00
  0.00000000E+00  0.00000000E+00  0.00000000E+00
  0.00000000E+00  0.00000000E+00  0.00000000E+00
  0.00000000E+00  0.00000000E+00  0.00000000E+00
  0.00000000E+00  0.00000000E+00  0.00000000E+00
