Ag13, -888.0 <s> Ag </s>                
   1.00000000000000     
    20.5548019999999987    0.0000000000000000    0.0000000000000000
     0.0000000000000000   20.5548019999999987    0.0000000000000000
     0.0000000000000000    0.0000000000000000   20.5548019999999987
   Ag
    13
Direct
  0.6224065755686111  0.5646126010601970  0.5514563139353154
  0.3775934244313890  0.4353873989398031  0.5514563139353154
  0.5000000000000000  0.5000000000000000  0.5726598930335463
  0.3781055864109402  0.5738654141765261  0.5571734045966266
  0.5000143516870305  0.6273839979154883  0.5344829308398876
  0.4999856483129697  0.3726160020845117  0.5344829308398876
  0.6218944135890599  0.4261345858234737  0.5571734045966266
  0.5535043240539677  0.5440912607040006  0.4372326313998129
  0.4464956759460322  0.4559087392959995  0.4372326313998129
  0.3192795466843316  0.5081309035256278  0.4536613531546832
  0.4223271072060523  0.5897844841428711  0.4296634195569083
  0.5776728927939478  0.4102155158571290  0.4296634195569083
  0.6807204533156682  0.4918690964743722  0.4536613531546832
 
  0.00000000E+00  0.00000000E+00  0.00000000E+00
  0.00000000E+00  0.00000000E+00  0.00000000E+00
  0.00000000E+00  0.00000000E+00  0.00000000E+00
  0.00000000E+00  0.00000000E+00  0.00000000E+00
  0.00000000E+00  0.00000000E+00  0.00000000E+00
  0.00000000E+00  0.00000000E+00  0.00000000E+00
  0.00000000E+00  0.00000000E+00  0.00000000E+00
  0.00000000E+00  0.00000000E+00  0.00000000E+00
  0.00000000E+00  0.00000000E+00  0.00000000E+00
  0.00000000E+00  0.00000000E+00  0.00000000E+00
  0.00000000E+00  0.00000000E+00  0.00000000E+00
  0.00000000E+00  0.00000000E+00  0.00000000E+00
  0.00000000E+00  0.00000000E+00  0.00000000E+00
