Ti10, -58.05574333 <s> Pd </s>          
   1.00000000000000     
    18.3166243576020094    0.0000000000000000    0.0000000000000000
     0.0000000000000000   18.3166243576020094    0.0000000000000000
     0.0000000000000000    0.0000000000000000   18.3166243576020094
   Pd
    10
Direct
  0.5785285562617291  0.5384449871397999  0.4440584427139050
  0.5690110104040761  0.6372285374521600  0.5443631167078881
  0.5612912242860654  0.4206707397280740  0.3618938113633219
  0.5390514368313615  0.4077985869255972  0.4987338327082728
  0.4997149213054127  0.5192311938098647  0.5792650552634298
  0.4457215303454679  0.6122024191654113  0.4816482304609932
  0.4487573596828212  0.4954151055441978  0.3960089093039625
  0.4359149795686192  0.3884207820239121  0.5965498625473704
  0.4139645614071372  0.3645683978635572  0.4506530143762499
  0.3733912570617504  0.4878241475747953  0.5154866771212424
 
  0.00000000E+00  0.00000000E+00  0.00000000E+00
  0.00000000E+00  0.00000000E+00  0.00000000E+00
  0.00000000E+00  0.00000000E+00  0.00000000E+00
  0.00000000E+00  0.00000000E+00  0.00000000E+00
  0.00000000E+00  0.00000000E+00  0.00000000E+00
  0.00000000E+00  0.00000000E+00  0.00000000E+00
  0.00000000E+00  0.00000000E+00  0.00000000E+00
  0.00000000E+00  0.00000000E+00  0.00000000E+00
  0.00000000E+00  0.00000000E+00  0.00000000E+00
  0.00000000E+00  0.00000000E+00  0.00000000E+00
