Pt55, -260.44483624 <s> Ag </s>         
   1.00000000000000     
    26.1431984729139018    0.0000000000000000    0.0000000000000000
     0.0000000000000000   26.1431984729139018    0.0000000000000000
     0.0000000000000000    0.0000000000000000   26.1431984729139018
   Ag
    55
Direct
  0.3005216159145754  0.4310164398454583  0.5052774824340022
  0.5287810706996907  0.6737558320850853  0.5970947955349113
  0.7376458461596291  0.6749904422773003  0.5000557952305843
  0.4450123853626500  0.6057782258767663  0.6306118261806035
  0.4285711364751582  0.6566025078485459  0.4232932715465635
  0.3509388156697251  0.6252379532813829  0.5732991073166188
  0.7595571949492996  0.5282129196000461  0.2852887577752165
  0.5473129558604422  0.4653498203308301  0.6091197324221135
  0.4607090317405663  0.5050519566964951  0.6576640324449536
  0.7371341175996098  0.4306062991590193  0.3149105455664447
  0.3888485353247962  0.3924887601011276  0.3227846182020145
  0.3822933573070117  0.4449585153390079  0.6939183396122677
  0.3288884876165359  0.5085869779484465  0.4371073658437567
  0.6775779396239677  0.3311140096303186  0.4620050080224969
  0.4811245037145769  0.3988129038395345  0.6742258068090857
  0.4113323544188528  0.4510834022522808  0.4862051032951891
  0.6335599267742437  0.5271255030428517  0.5916752668180353
  0.3178057372225163  0.5306353273445513  0.5421746771202357
  0.3750485254802412  0.3578169496396565  0.5272781660464090
  0.3665483714720145  0.4492423493814405  0.5888791453765260
  0.5545197795805669  0.3600192360186620  0.6082346611655323
  0.7692507928776663  0.5041625905250333  0.3840413879201863
  0.3911231225601484  0.3529041721834041  0.6316153481784861
  0.4033120564437255  0.6698353645697676  0.3237947628188531
  0.3757145609830759  0.5798279894693626  0.3682763679433858
  0.5385050012416689  0.5700129344362439  0.5981629835664507
  0.4577845787943502  0.5190288646648356  0.5526024855041384
  0.6560937151474820  0.2678700988453515  0.2963212713694270
  0.7243988557315683  0.3982743397487102  0.5263505259294421
  0.4105481373497525  0.3521276805819595  0.7360727840202687
  0.6389918483684928  0.4181589281364937  0.5815472852307929
  0.4652018694505853  0.4066868943106651  0.5680515672488590
  0.3585313211284886  0.5406934752925979  0.6453321123986593
  0.7286203242240857  0.4821294556575363  0.5896735544436369
  0.7615096839000657  0.4920961930390063  0.4878929096740752
  0.7382195562646487  0.4107905338753468  0.4226666125552638
  0.7583575274808095  0.5899007420086985  0.4430016880182643
  0.7247355721162464  0.7628789524504389  0.5534260250042455
  0.4351262577862842  0.5505513279595653  0.4539210091299111
  0.6923500755106595  0.6588396171458352  0.7033230571431830
  0.7170337260994687  0.6735838783569082  0.6033042588414129
  0.6213901871701505  0.6307160380467772  0.6261333780675528
  0.4089561829447254  0.4765355299452538  0.3776719430008330
  0.6955503496097910  0.3402626680921252  0.3593508027853758
  0.3542223683936710  0.3912422496588310  0.4212751001718673
  0.7144180701664605  0.5743426036839044  0.6459230384642538
  0.4267070041558308  0.7060332871259283  0.6013033924908140
  0.3577708141716289  0.6483598717170796  0.6735473902354466
  0.3224900792365679  0.7266086352663195  0.6004965927276570
  0.2465475339735380  0.7914517484113331  0.6022630004533308
  0.6991817159233819  0.3523276541977415  0.2559236627803415
  0.4569483415680365  0.6285760126041645  0.5250835250450689
  0.3433479269641310  0.6089222814530605  0.4696084769155240
  0.7218327631952777  0.5781475370141018  0.5408910605968521
  0.3780394703771119  0.7041765982630628  0.5065902148387920
 
  0.00000000E+00  0.00000000E+00  0.00000000E+00
  0.00000000E+00  0.00000000E+00  0.00000000E+00
  0.00000000E+00  0.00000000E+00  0.00000000E+00
  0.00000000E+00  0.00000000E+00  0.00000000E+00
  0.00000000E+00  0.00000000E+00  0.00000000E+00
  0.00000000E+00  0.00000000E+00  0.00000000E+00
  0.00000000E+00  0.00000000E+00  0.00000000E+00
  0.00000000E+00  0.00000000E+00  0.00000000E+00
  0.00000000E+00  0.00000000E+00  0.00000000E+00
  0.00000000E+00  0.00000000E+00  0.00000000E+00
  0.00000000E+00  0.00000000E+00  0.00000000E+00
  0.00000000E+00  0.00000000E+00  0.00000000E+00
  0.00000000E+00  0.00000000E+00  0.00000000E+00
  0.00000000E+00  0.00000000E+00  0.00000000E+00
  0.00000000E+00  0.00000000E+00  0.00000000E+00
  0.00000000E+00  0.00000000E+00  0.00000000E+00
  0.00000000E+00  0.00000000E+00  0.00000000E+00
  0.00000000E+00  0.00000000E+00  0.00000000E+00
  0.00000000E+00  0.00000000E+00  0.00000000E+00
  0.00000000E+00  0.00000000E+00  0.00000000E+00
  0.00000000E+00  0.00000000E+00  0.00000000E+00
  0.00000000E+00  0.00000000E+00  0.00000000E+00
  0.00000000E+00  0.00000000E+00  0.00000000E+00
  0.00000000E+00  0.00000000E+00  0.00000000E+00
  0.00000000E+00  0.00000000E+00  0.00000000E+00
  0.00000000E+00  0.00000000E+00  0.00000000E+00
  0.00000000E+00  0.00000000E+00  0.00000000E+00
  0.00000000E+00  0.00000000E+00  0.00000000E+00
  0.00000000E+00  0.00000000E+00  0.00000000E+00
  0.00000000E+00  0.00000000E+00  0.00000000E+00
  0.00000000E+00  0.00000000E+00  0.00000000E+00
  0.00000000E+00  0.00000000E+00  0.00000000E+00
  0.00000000E+00  0.00000000E+00  0.00000000E+00
  0.00000000E+00  0.00000000E+00  0.00000000E+00
  0.00000000E+00  0.00000000E+00  0.00000000E+00
  0.00000000E+00  0.00000000E+00  0.00000000E+00
  0.00000000E+00  0.00000000E+00  0.00000000E+00
  0.00000000E+00  0.00000000E+00  0.00000000E+00
  0.00000000E+00  0.00000000E+00  0.00000000E+00
  0.00000000E+00  0.00000000E+00  0.00000000E+00
  0.00000000E+00  0.00000000E+00  0.00000000E+00
  0.00000000E+00  0.00000000E+00  0.00000000E+00
  0.00000000E+00  0.00000000E+00  0.00000000E+00
  0.00000000E+00  0.00000000E+00  0.00000000E+00
  0.00000000E+00  0.00000000E+00  0.00000000E+00
  0.00000000E+00  0.00000000E+00  0.00000000E+00
  0.00000000E+00  0.00000000E+00  0.00000000E+00
  0.00000000E+00  0.00000000E+00  0.00000000E+00
  0.00000000E+00  0.00000000E+00  0.00000000E+00
  0.00000000E+00  0.00000000E+00  0.00000000E+00
  0.00000000E+00  0.00000000E+00  0.00000000E+00
  0.00000000E+00  0.00000000E+00  0.00000000E+00
  0.00000000E+00  0.00000000E+00  0.00000000E+00
  0.00000000E+00  0.00000000E+00  0.00000000E+00
  0.00000000E+00  0.00000000E+00  0.00000000E+00
