Pt41, -205.31987698 <s> Ag </s>         
   1.00000000000000     
    23.1342531817723014    0.0000000000000000    0.0000000000000000
     0.0000000000000000   23.1342531817723014    0.0000000000000000
     0.0000000000000000    0.0000000000000000   23.1342531817723014
   Ag
    41
Direct
  0.3816882446572010  0.6336702377437264  0.4175539007171754
  0.4452016934924127  0.5646506157883456  0.3415995023978554
  0.4956672851214117  0.6893160199787374  0.4320151320237207
  0.3139498926138071  0.5989891888401101  0.5141877309876793
  0.4248480763115802  0.6563836768948416  0.5247921127006874
  0.5527729821485443  0.5112117206427369  0.3201260423717881
  0.3782875219770833  0.5171053964546620  0.4493851559160905
  0.5527991720930359  0.6250447565626146  0.3496220354354599
  0.6192766458946257  0.6560516707408592  0.4471113686188453
  0.4704918779411693  0.4563422995662252  0.3994947160743322
  0.5452501251444453  0.6851840128145508  0.5427808738101144
  0.4692665624887380  0.6747893027574414  0.6345343782663611
  0.3695063118685849  0.6093076618325762  0.6238526686731423
  0.4895221225395193  0.5680319618450852  0.4510215528932648
  0.2647805730416443  0.5550302423137806  0.6218293178200009
  0.5574164714727035  0.3899324169800754  0.3481303678326123
  0.5928144247640010  0.4789536447289856  0.4351608237748674
  0.3569897275772196  0.4993580115486614  0.5695488469688144
  0.6554345456501287  0.5647146896112827  0.3707251955773468
  0.5828201633631941  0.5675677907462263  0.5216622687076555
  0.6567714407937776  0.4532020441564074  0.3239541156589834
  0.4728419128573305  0.5524075635250528  0.5744110892210522
  0.4416387148070400  0.4351054801228362  0.5151603811706175
  0.3545409488293609  0.5116926545145173  0.6961823886167406
  0.6593029410194251  0.6454185022702669  0.5677971610322994
  0.7237698356943024  0.4696615977930455  0.4196035523929180
  0.6976642210741061  0.5620819031092033  0.4900450630634606
  0.5690191159036916  0.6092996104332409  0.6419356790331174
  0.5559556647457384  0.4581744309162678  0.5549322368459162
  0.5312750998093807  0.3699794465442281  0.4647438945974281
  0.4604224446118710  0.5693707842292018  0.6966028902932377
  0.4460020285228827  0.4472347912518075  0.6375801712322168
  0.6525195676104043  0.3701837435698304  0.4252032471721870
  0.6779977200856031  0.4430632723138352  0.5270781511071786
  0.6551194352111410  0.5260077063319959  0.6120295971873183
  0.5552665992311254  0.4954145224075343  0.6800865557872403
  0.5106409075526159  0.3545992506874069  0.5872521029512262
  0.4522364901588785  0.4647338288837761  0.7552994872917375
  0.6212531668964651  0.3377924619675941  0.5378094712195787
  0.6265704915192285  0.4060883598186322  0.6371988417273586
  0.5255138083441729  0.3819597022013904  0.7050669062699816
 
  0.00000000E+00  0.00000000E+00  0.00000000E+00
  0.00000000E+00  0.00000000E+00  0.00000000E+00
  0.00000000E+00  0.00000000E+00  0.00000000E+00
  0.00000000E+00  0.00000000E+00  0.00000000E+00
  0.00000000E+00  0.00000000E+00  0.00000000E+00
  0.00000000E+00  0.00000000E+00  0.00000000E+00
  0.00000000E+00  0.00000000E+00  0.00000000E+00
  0.00000000E+00  0.00000000E+00  0.00000000E+00
  0.00000000E+00  0.00000000E+00  0.00000000E+00
  0.00000000E+00  0.00000000E+00  0.00000000E+00
  0.00000000E+00  0.00000000E+00  0.00000000E+00
  0.00000000E+00  0.00000000E+00  0.00000000E+00
  0.00000000E+00  0.00000000E+00  0.00000000E+00
  0.00000000E+00  0.00000000E+00  0.00000000E+00
  0.00000000E+00  0.00000000E+00  0.00000000E+00
  0.00000000E+00  0.00000000E+00  0.00000000E+00
  0.00000000E+00  0.00000000E+00  0.00000000E+00
  0.00000000E+00  0.00000000E+00  0.00000000E+00
  0.00000000E+00  0.00000000E+00  0.00000000E+00
  0.00000000E+00  0.00000000E+00  0.00000000E+00
  0.00000000E+00  0.00000000E+00  0.00000000E+00
  0.00000000E+00  0.00000000E+00  0.00000000E+00
  0.00000000E+00  0.00000000E+00  0.00000000E+00
  0.00000000E+00  0.00000000E+00  0.00000000E+00
  0.00000000E+00  0.00000000E+00  0.00000000E+00
  0.00000000E+00  0.00000000E+00  0.00000000E+00
  0.00000000E+00  0.00000000E+00  0.00000000E+00
  0.00000000E+00  0.00000000E+00  0.00000000E+00
  0.00000000E+00  0.00000000E+00  0.00000000E+00
  0.00000000E+00  0.00000000E+00  0.00000000E+00
  0.00000000E+00  0.00000000E+00  0.00000000E+00
  0.00000000E+00  0.00000000E+00  0.00000000E+00
  0.00000000E+00  0.00000000E+00  0.00000000E+00
  0.00000000E+00  0.00000000E+00  0.00000000E+00
  0.00000000E+00  0.00000000E+00  0.00000000E+00
  0.00000000E+00  0.00000000E+00  0.00000000E+00
  0.00000000E+00  0.00000000E+00  0.00000000E+00
  0.00000000E+00  0.00000000E+00  0.00000000E+00
  0.00000000E+00  0.00000000E+00  0.00000000E+00
  0.00000000E+00  0.00000000E+00  0.00000000E+00
  0.00000000E+00  0.00000000E+00  0.00000000E+00
