Pt13, -57.78773142 <s> Cu </s>
  1.00000000000000
    18.79917439060742     0.00000000000000     0.00000000000000
     0.00000000000000    18.79917439060742     0.00000000000000
     0.00000000000000     0.00000000000000    18.79917439060742
  Cu    
  13    
Direct
     0.59627413633930      0.47843014940944      0.56096089209945   
     0.56563594897044      0.51586990707613      0.44863616330430   
     0.53681730072961      0.39206142770856      0.49680676794388   
     0.53916241330214      0.53351896076626      0.33028239091256   
     0.47775523118415      0.50540317239769      0.54026467339151   
     0.50646540464639      0.42189268002166      0.36985966274032   
     0.45816216142721      0.32449324164203      0.42921943074682   
     0.44607909635521      0.53625821890485      0.41101221645280   
     0.41264144130594      0.38676861136902      0.52579955849552   
     0.38375417829287      0.46976749458315      0.61140036105513   
     0.38218613043124      0.41762988269073      0.39916934629686   
     0.35783743397668      0.50757449091892      0.49798708614806   
     0.32713757772808      0.52617078299519      0.38097202096350   
