Ag12, -941.0 <s> Ag </s>                
   1.00000000000000     
    19.7802579999999999    0.0000000000000000    0.0000000000000000
     0.0000000000000000   19.7802579999999999    0.0000000000000000
     0.0000000000000000    0.0000000000000000   19.7802579999999999
   Ag
    12
Direct
  0.5608341926260013  0.4397589039729968  0.5720068849180551
  0.5623270562507723  0.5796915392338979  0.5708609872571139
  0.4359157731453082  0.5120891222053012  0.5711886689975674
  0.4518986987980610  0.6363869358130315  0.5000000000000000
  0.5623270562507723  0.5796915392338979  0.4291390127428861
  0.5608341926260013  0.4397589039729968  0.4279931150819448
  0.4359157731453082  0.5120891222053012  0.4288113310024328
  0.6647224206286327  0.5143368559816827  0.5000000000000000
  0.6582702658951155  0.3727142438793019  0.5000000000000000
  0.3261459226792331  0.4444545804997429  0.5000000000000000
  0.4530506229288458  0.3880626237755134  0.5000000000000000
  0.3277580250259270  0.5809656292263286  0.5000000000000000
 
  0.00000000E+00  0.00000000E+00  0.00000000E+00
  0.00000000E+00  0.00000000E+00  0.00000000E+00
  0.00000000E+00  0.00000000E+00  0.00000000E+00
  0.00000000E+00  0.00000000E+00  0.00000000E+00
  0.00000000E+00  0.00000000E+00  0.00000000E+00
  0.00000000E+00  0.00000000E+00  0.00000000E+00
  0.00000000E+00  0.00000000E+00  0.00000000E+00
  0.00000000E+00  0.00000000E+00  0.00000000E+00
  0.00000000E+00  0.00000000E+00  0.00000000E+00
  0.00000000E+00  0.00000000E+00  0.00000000E+00
  0.00000000E+00  0.00000000E+00  0.00000000E+00
  0.00000000E+00  0.00000000E+00  0.00000000E+00
