Pt11, -46.98558353 <s> Pd </s>          
   1.00000000000000     
    18.5199773483183989    0.0000000000000000    0.0000000000000000
     0.0000000000000000   18.5199773483183989    0.0000000000000000
     0.0000000000000000    0.0000000000000000   18.5199773483183989
   Pd
    11
Direct
  0.6314364368901888  0.3800477501035419  0.5139708878393018
  0.4274924568698398  0.4116744706136896  0.3961765468808792
  0.4973899753516097  0.3479897706762434  0.5026005861280899
  0.5498001936570891  0.4712755542371063  0.4468793497302503
  0.5612866454281003  0.6072642642475179  0.4078434297994633
  0.5429316002167534  0.4471412186584853  0.5996028306523785
  0.4146388926499057  0.4674056288613486  0.5286452422445165
  0.4318346378293022  0.5516772779706393  0.4150897699214748
  0.5147558157824906  0.5782491581578965  0.5421863036627588
  0.4564010329102426  0.6795963000711234  0.4677843509213743
  0.4425939399186042  0.5284886813651639  0.6498567979321043
 
  0.00000000E+00  0.00000000E+00  0.00000000E+00
  0.00000000E+00  0.00000000E+00  0.00000000E+00
  0.00000000E+00  0.00000000E+00  0.00000000E+00
  0.00000000E+00  0.00000000E+00  0.00000000E+00
  0.00000000E+00  0.00000000E+00  0.00000000E+00
  0.00000000E+00  0.00000000E+00  0.00000000E+00
  0.00000000E+00  0.00000000E+00  0.00000000E+00
  0.00000000E+00  0.00000000E+00  0.00000000E+00
  0.00000000E+00  0.00000000E+00  0.00000000E+00
  0.00000000E+00  0.00000000E+00  0.00000000E+00
  0.00000000E+00  0.00000000E+00  0.00000000E+00
