Al8, -19.91502123 <s> Ag </s>           
   1.00000000000000     
    19.1808388828514715    0.0000000000000000    0.0000000000000000
     0.0000000000000000   19.1808388828514715    0.0000000000000000
     0.0000000000000000    0.0000000000000000   19.1808388828514715
   Ag
     8
Direct
  0.4975749699823682  0.5205025687418939  0.3663575110026331
  0.6462765715671702  0.5287604432550288  0.5359158470666250
  0.5486341925561919  0.4423434587260923  0.4747753177266801
  0.5288647123640214  0.5888637555617985  0.4858854868876920
  0.4859416092925659  0.3611955252679411  0.5698000150826975
  0.4435182378263265  0.4950475450394893  0.5689481078779056
  0.3929326114004540  0.5672584210742722  0.4563382434477478
  0.5446263822565571  0.5804978481615218  0.6251938638942478
 
  0.00000000E+00  0.00000000E+00  0.00000000E+00
  0.00000000E+00  0.00000000E+00  0.00000000E+00
  0.00000000E+00  0.00000000E+00  0.00000000E+00
  0.00000000E+00  0.00000000E+00  0.00000000E+00
  0.00000000E+00  0.00000000E+00  0.00000000E+00
  0.00000000E+00  0.00000000E+00  0.00000000E+00
  0.00000000E+00  0.00000000E+00  0.00000000E+00
  0.00000000E+00  0.00000000E+00  0.00000000E+00
