Ti46, -307.90599791 <s> Ag </s>
  1.00000000000000
    22.56747337494996     0.00000000000000     0.00000000000000
     0.00000000000000    22.56747337494996     0.00000000000000
     0.00000000000000     0.00000000000000    22.56747337494996
  Ag    
  46    
Direct
     0.67132647664324      0.59086823069509      0.36143389925406   
     0.65553296241488      0.64090986780517      0.47428909102181   
     0.71277706134697      0.52765518272927      0.45725104152812   
     0.57761502841391      0.65978273835530      0.38061203116574   
     0.64521481645543      0.47036796503791      0.34432921613770   
     0.71057655208333      0.41548243365156      0.42146072352878   
     0.56050358628782      0.72128432631911      0.48294291342094   
     0.63047989366082      0.54660498530290      0.55732363113005   
     0.56660582030269      0.55548592167743      0.32181012836035   
     0.70580276636379      0.43380644846925      0.53958451893879   
     0.52943829522854      0.61238252827756      0.48166996769091   
     0.58833457743424      0.65141298077015      0.57950947162106   
     0.61062875136768      0.34584657215304      0.38565714073651   
     0.59850828992176      0.53227876407524      0.43698785326505   
     0.66382074723588      0.46741803191919      0.64504854738274   
     0.52887975577555      0.44772101411423      0.36345292309880   
     0.45444192181997      0.68243639450645      0.42092557516717   
     0.67916178200177      0.33156413308637      0.48854746016609   
     0.56408644575885      0.52735282360580      0.66798807929067   
     0.46935613330040      0.67702127632088      0.55813872298641   
     0.56306241521931      0.44536213455631      0.58020012214841   
     0.46564462955577      0.57346051774910      0.38188740477257   
     0.59783846906265      0.41939850160704      0.46790022902818   
     0.49822977544828      0.56006508763690      0.58344171226898   
     0.36860260767226      0.70043517323278      0.49255969613093   
     0.64134397979409      0.35297419599202      0.60176854263813   
     0.48626366897753      0.48202128306236      0.47397847006239   
     0.57682783719246      0.40874411295543      0.69222830378971   
     0.40228030761917      0.58474062263394      0.49492887740424   
     0.34289571630553      0.61310909518534      0.40072125981482   
     0.56715046075381      0.30711063778276      0.50814904537227   
     0.35609676170259      0.64477232899278      0.59543860931970   
     0.38726220334473      0.49586962172558      0.40017752280326   
     0.49385024792962      0.36048851944427      0.42685546175612   
     0.46363944316925      0.44768581085121      0.64765473694431   
     0.52120939206156      0.33642103198064      0.62407169226666   
     0.46859411769509      0.37421096009082      0.53245876020501   
     0.28362990988636      0.62580006502985      0.50513810916049   
     0.40058667693623      0.55740339554105      0.65855578211314   
     0.38990989048279      0.48568356799179      0.56031817179522   
     0.29223822285971      0.51422929625814      0.46894607735990   
     0.36473803392604      0.40826250769454      0.47298058669103   
     0.29037328144166      0.54796318123477      0.59493898833284   
     0.37236520302165      0.37010752188867      0.59131273239424   
     0.33685753482306      0.45656199657568      0.66131822709103   
     0.28161443944727      0.43423462972540      0.55778703894671   
