Re11, -753.0 <s> Pd </s>                
   1.00000000000000     
    17.9619999999999997    0.0000000000000000    0.0000000000000000
     0.0000000000000000   17.9619999999999997    0.0000000000000000
     0.0000000000000000    0.0000000000000000   17.9619999999999997
   Pd
    11
Direct
  0.5217881592845069  0.4509471375135954  0.3883604454062220
  0.4438813488780823  0.3520982093705144  0.4723214729678815
  0.5826778053823599  0.5895508924909976  0.3957538380292517
  0.6553514483802453  0.4839999943402808  0.4553704507027116
  0.4600510745811151  0.5552394189024044  0.4700534418428236
  0.3708935136245626  0.4569826177603086  0.4116424261790087
  0.5796905842376134  0.5850333239389188  0.5473035821027595
  0.4345202280765652  0.6086734542143507  0.6006780795015564
  0.3986073029672583  0.4637643741185646  0.5653040727265184
  0.5133047498534176  0.5076091140926301  0.6601370969049852
  0.5392337837430738  0.4461014632574345  0.5330750926450590
 
  0.00000000E+00  0.00000000E+00  0.00000000E+00
  0.00000000E+00  0.00000000E+00  0.00000000E+00
  0.00000000E+00  0.00000000E+00  0.00000000E+00
  0.00000000E+00  0.00000000E+00  0.00000000E+00
  0.00000000E+00  0.00000000E+00  0.00000000E+00
  0.00000000E+00  0.00000000E+00  0.00000000E+00
  0.00000000E+00  0.00000000E+00  0.00000000E+00
  0.00000000E+00  0.00000000E+00  0.00000000E+00
  0.00000000E+00  0.00000000E+00  0.00000000E+00
  0.00000000E+00  0.00000000E+00  0.00000000E+00
  0.00000000E+00  0.00000000E+00  0.00000000E+00
