Al54, -172.60405357 <s> Ag </s>
  1.00000000000000
    24.00336966493723     0.00000000000000     0.00000000000000
     0.00000000000000    24.00336966493723     0.00000000000000
     0.00000000000000     0.00000000000000    24.00336966493723
  Ag    
  54    
Direct
     0.34765751116167      0.63056234506323      0.59622290575081   
     0.34731676960568      0.52461043849643      0.64524773124529   
     0.30759813609461      0.61345920919570      0.49324461138088   
     0.45276201913305      0.65832262193476      0.53559142486209   
     0.44890321751339      0.47132434493897      0.43695468675194   
     0.36712236526174      0.63285636265561      0.70950650496595   
     0.29347532206280      0.50768462752357      0.53919876603262   
     0.45539149857128      0.57401663458292      0.37285606176514   
     0.49031039090618      0.29727582300766      0.42216703817954   
     0.43507376892267      0.37197887389707      0.50024595423363   
     0.52354372725883      0.29959060992699      0.52814918062091   
     0.53271632053912      0.66785305258839      0.62186870616804   
     0.58082827223902      0.65452711134772      0.52091933903683   
     0.48953356924604      0.41583078508192      0.33389223865504   
     0.44587095894942      0.45877053931848      0.66673852371129   
     0.47785246961416      0.36731051265057      0.60981428145786   
     0.41851120100690      0.53672153839798      0.74407725292502   
     0.49669148291672      0.51905420951199      0.27931717796452   
     0.50670121195591      0.56174971728683      0.48394803929022   
     0.53976471565029      0.39751902468837      0.45162124050201   
     0.48041737292719      0.64272715146852      0.72676726904202   
     0.59558695250826      0.38548602713935      0.55383625849659   
     0.37774778254248      0.43278683856798      0.57705484645437   
     0.69845061169679      0.40485362499763      0.50031775766888   
     0.59640861287399      0.63581151766990      0.71929451606373   
     0.52803015123369      0.53733138540066      0.70491721411101   
     0.56631711103250      0.44875963163263      0.64649283083354   
     0.45063136087868      0.58127125272369      0.62954101894630   
     0.49529065287676      0.46682207696911      0.54888629710528   
     0.76399293249177      0.49706199022610      0.53601393541725   
     0.55160320528174      0.49847825613614      0.38649010716565   
     0.73780524909655      0.56294455854919      0.62358380561670   
     0.57637873213319      0.34300744263989      0.34507604189931   
     0.66559691775879      0.47378075240678      0.59264759565438   
     0.64244395753553      0.53770215834471      0.68527234438192   
     0.40317933820896      0.54467676676133      0.53155770559066   
     0.64284926523440      0.41859792553372      0.39804071951739   
     0.39856305923919      0.37010640849421      0.38571995264421   
     0.34036794565151      0.43141630988927      0.46353898394985   
     0.60002209962486      0.48773506345134      0.49586487695860   
     0.64784594181909      0.64343131711031      0.61721743328970   
     0.47240388914603      0.30375307150499      0.30965783187405   
     0.56829650326750      0.55547126850526      0.59164096300602   
     0.70607061578450      0.50929177299431      0.43805963792263   
     0.42708446488545      0.70707222644120      0.64163967333776   
     0.67290104898624      0.57669270084385      0.52815441346377   
     0.35143591702034      0.53799205233377      0.41943829188788   
     0.39504365310528      0.48166176003070      0.32986316649589   
     0.59321687657150      0.44693241803673      0.28373072301415   
     0.61443318104361      0.58671782595140      0.43168105279380   
     0.65551003220369      0.52664094909786      0.33658568638547   
     0.39866622396724      0.65066478642878      0.43273866477725   
     0.56434987270566      0.60544317069551      0.32581430513435   
     0.51636580958808      0.66160465303521      0.42403834348410   
