Pt10, -42.26364208 <s> Pd </s>          
   1.00000000000000     
    18.2801955541774390    0.0000000000000000    0.0000000000000000
     0.0000000000000000   18.2801955541774390    0.0000000000000000
     0.0000000000000000    0.0000000000000000   18.2801955541774390
   Pd
    10
Direct
  0.5846840545630696  0.4958836715910001  0.4557300021439412
  0.4342838043135742  0.3780697294788123  0.4136162026450749
  0.5639933760249251  0.3588599947882188  0.4563047523157805
  0.5337449903201130  0.4278469105125969  0.5778317610419348
  0.5970019781695093  0.6317691514602327  0.4782452761322348
  0.4434432111007666  0.4989988240687643  0.6615989357369595
  0.4037403155212952  0.4479819641193222  0.5341579706743017
  0.4555436131195636  0.5151559401298302  0.4117122160783624
  0.4683609806862338  0.6509577721379771  0.4345600748461192
  0.4898456073741962  0.5695168656689261  0.5513708361188665
 
  0.00000000E+00  0.00000000E+00  0.00000000E+00
  0.00000000E+00  0.00000000E+00  0.00000000E+00
  0.00000000E+00  0.00000000E+00  0.00000000E+00
  0.00000000E+00  0.00000000E+00  0.00000000E+00
  0.00000000E+00  0.00000000E+00  0.00000000E+00
  0.00000000E+00  0.00000000E+00  0.00000000E+00
  0.00000000E+00  0.00000000E+00  0.00000000E+00
  0.00000000E+00  0.00000000E+00  0.00000000E+00
  0.00000000E+00  0.00000000E+00  0.00000000E+00
  0.00000000E+00  0.00000000E+00  0.00000000E+00
