Al11, -29.62695812 <s> Ni </s>          
   1.00000000000000     
    18.3143269921612983    0.0000000000000000    0.0000000000000000
     0.0000000000000000   18.3143269921612983    0.0000000000000000
     0.0000000000000000    0.0000000000000000   18.3143269921612983
   Ni
    11
Direct
  0.5236797989593962  0.5424366792825782  0.4998991761822171
  0.5038683955102609  0.5338818134584526  0.3600988478106931
  0.5214569701109059  0.4200050449538405  0.5413209409715293
  0.4558806641696034  0.4572029644176089  0.4431886723166449
  0.4980113529627910  0.3323718606746626  0.4449123598378266
  0.3846126372161023  0.4863289051963266  0.3466419141212966
  0.4924898577617429  0.4074228111888610  0.3360220636056186
  0.4134978110425682  0.4987688214043143  0.5516590321161258
  0.3253432394165201  0.4581062795580783  0.4616078373326788
  0.3832769865479524  0.3641328631895299  0.3930923114558272
  0.4015559493453157  0.3719686936429029  0.5220521440038109
 
  0.00000000E+00  0.00000000E+00  0.00000000E+00
  0.00000000E+00  0.00000000E+00  0.00000000E+00
  0.00000000E+00  0.00000000E+00  0.00000000E+00
  0.00000000E+00  0.00000000E+00  0.00000000E+00
  0.00000000E+00  0.00000000E+00  0.00000000E+00
  0.00000000E+00  0.00000000E+00  0.00000000E+00
  0.00000000E+00  0.00000000E+00  0.00000000E+00
  0.00000000E+00  0.00000000E+00  0.00000000E+00
  0.00000000E+00  0.00000000E+00  0.00000000E+00
  0.00000000E+00  0.00000000E+00  0.00000000E+00
  0.00000000E+00  0.00000000E+00  0.00000000E+00
