Al54, -172.53915594 <s> Ag </s>
  1.00000000000000
    24.42078928975716     0.00000000000000     0.00000000000000
     0.00000000000000    24.42078928975716     0.00000000000000
     0.00000000000000     0.00000000000000    24.42078928975716
  Ag    
  54    
Direct
     0.71413878959184      0.64389070388235      0.44092042779147   
     0.65714842265578      0.60049605469585      0.34761509840224   
     0.49026452720261      0.69551891568412      0.42097067818512   
     0.59456704525617      0.72699728647753      0.61410840395865   
     0.44387930132963      0.59994273966093      0.40246929934635   
     0.60065423111353      0.66772074702071      0.42741308091246   
     0.53973585385086      0.70758369985618      0.51898311226725   
     0.63534378068989      0.64288306487782      0.53991770613202   
     0.73728118801532      0.53681701186573      0.40942673378993   
     0.71765333962767      0.56208868367241      0.52679298758633   
     0.54975967333952      0.57042063489667      0.36984874863132   
     0.48805930440552      0.69080878724493      0.61685078417776   
     0.63074324865481      0.56091712876228      0.45270556833123   
     0.34396153233325      0.60178200425374      0.46329700438092   
     0.43618038016541      0.52126717392841      0.48973860949516   
     0.36120828289554      0.52458781040624      0.38454202123408   
     0.64182951861061      0.48451312305691      0.36644031910820   
     0.42856895935186      0.66248781714599      0.51734252625567   
     0.45724558388604      0.52222403208090      0.31875429482139   
     0.57154412067599      0.61525461488123      0.63379943671497   
     0.52451268722675      0.59572831508288      0.49026054371339   
     0.31545934473160      0.67250868467934      0.54287262346298   
     0.60142165730285      0.52781885505945      0.55697082631567   
     0.67753771669349      0.45817004995868      0.47377720379813   
     0.38513701812656      0.64550435766570      0.62825043492709   
     0.53770016393826      0.45080799346528      0.34409225790190   
     0.54254105353374      0.48717165429357      0.45763147187714   
     0.70691507746913      0.46302291012948      0.58186491912603   
     0.67436644762037      0.57031101971004      0.63378443475044   
     0.43706513292307      0.44338143051853      0.40404192271574   
     0.59764027258806      0.38920118906944      0.42874257455481   
     0.60160926006741      0.40996076055540      0.54429437893941   
     0.53581056544222      0.51543475592896      0.68160320028145   
     0.46894030517621      0.60687974065747      0.69819888408592   
     0.46773569803456      0.56885418244850      0.58774085138925   
     0.49207941711302      0.39207565871902      0.48927227757244   
     0.33530886556283      0.56168407298422      0.57224851444000   
     0.31370251861006      0.41911224287604      0.40194320671389   
     0.50008597896262      0.35060479152630      0.37135078384554   
     0.32261122260575      0.48613888710313      0.49127608694238   
     0.50731912193635      0.46439325220095      0.57793651251002   
     0.62397067519002      0.45692025738913      0.65243752498169   
     0.45178905448684      0.51513819544266      0.76392059963405   
     0.37561532281534      0.38779972882740      0.50194944195290   
     0.39149254624024      0.33671096372005      0.40269330010362   
     0.39239496049037      0.46473453716631      0.58091765934041   
     0.54969663922595      0.28998244366175      0.45286021808357   
     0.53994114353123      0.31303455300634      0.55971815434524   
     0.38305626582820      0.53605606474950      0.67188124387943   
     0.44801397554641      0.43871162368652      0.67594955370051   
     0.45785350147405      0.24697785824857      0.39638961838254   
     0.43983494236640      0.28889764569084      0.50142175713283   
     0.54342877232287      0.38015934777417      0.64936086887204   
     0.43515369594823      0.35655268098738      0.59382320365642   
