Ta10, -698.0 <s> Cu </s>                
   1.00000000000000     
    17.1667360000000002    0.0000000000000000    0.0000000000000000
     0.0000000000000000   17.1667360000000002    0.0000000000000000
     0.0000000000000000    0.0000000000000000   17.1667360000000002
   Cu
    10
Direct
  0.4481946983519229  0.6017971563072334  0.4838409727632540
  0.3870123105655509  0.4803472032629771  0.5068791438613717
  0.3972693619523794  0.5281195537829743  0.3704593806743361
  0.4765199588173617  0.4185360248554899  0.4216149729827469
  0.5813322374128698  0.5756497420534433  0.5305444019033851
  0.4742226073750456  0.5339631087800996  0.6070251326272800
  0.4935583269561953  0.4040918207751462  0.5633419178523688
  0.5383209128133253  0.5397651532620824  0.3992890777036602
  0.6008916440484225  0.4459677416588309  0.4873896024301322
  0.6026779352501395  0.4717624888049285  0.6296154036582519
 
  0.00000000E+00  0.00000000E+00  0.00000000E+00
  0.00000000E+00  0.00000000E+00  0.00000000E+00
  0.00000000E+00  0.00000000E+00  0.00000000E+00
  0.00000000E+00  0.00000000E+00  0.00000000E+00
  0.00000000E+00  0.00000000E+00  0.00000000E+00
  0.00000000E+00  0.00000000E+00  0.00000000E+00
  0.00000000E+00  0.00000000E+00  0.00000000E+00
  0.00000000E+00  0.00000000E+00  0.00000000E+00
  0.00000000E+00  0.00000000E+00  0.00000000E+00
  0.00000000E+00  0.00000000E+00  0.00000000E+00
