Ta10, -698.0 <s> Cu </s>
  1.00000000000000
    17.16673600000000     0.00000000000000     0.00000000000000
     0.00000000000000    17.16673600000000     0.00000000000000
     0.00000000000000     0.00000000000000    17.16673600000000
  Cu    
  10    
Direct
     0.45140399193900      0.60523541058073      0.48939153008055   
     0.38645255486742      0.47823484012566      0.51356765661197   
     0.41427015730260      0.52329399317449      0.39208065515597   
     0.48048545403605      0.41327760196879      0.42485544035656   
     0.57998116270748      0.58055003163361      0.52579085408767   
     0.46758575678397      0.53667523230094      0.60560094239976   
     0.48814573536436      0.40095511270293      0.55997141835808   
     0.54540897338468      0.54026693282111      0.40069122676814   
     0.60055181114118      0.44480199431264      0.48015185148699   
     0.58571439601646      0.47670884392231      0.60789843115110   
