Al12, -32.87197897 <s> Pd </s>          
   1.00000000000000     
    19.8453329303631207    0.0000000000000000    0.0000000000000000
     0.0000000000000000   19.8453329303631207    0.0000000000000000
     0.0000000000000000    0.0000000000000000   19.8453329303631207
   Pd
    12
Direct
  0.4804127880514318  0.4103311564767248  0.5191087214179395
  0.5727913753984484  0.5559305825926103  0.5884178732428030
  0.3882163338125717  0.4654906394508582  0.4366425424068746
  0.5030298617904188  0.4089399763787636  0.3871407474233813
  0.4916920064987432  0.5443084023347541  0.3875946583021389
  0.5784106527059356  0.4835669253187622  0.4725938273631216
  0.5630034844138665  0.6162269822661418  0.4705243072289139
  0.4173091002152542  0.4718688739492421  0.3098394563450881
  0.5928472522259065  0.4263762838522277  0.5935729409803823
  0.4567215614021630  0.5512566251298839  0.5193823037654820
  0.3657967598715890  0.4657583177820088  0.5653208006062883
  0.4765149093180676  0.4765069598931703  0.6361983050431014
 
  0.00000000E+00  0.00000000E+00  0.00000000E+00
  0.00000000E+00  0.00000000E+00  0.00000000E+00
  0.00000000E+00  0.00000000E+00  0.00000000E+00
  0.00000000E+00  0.00000000E+00  0.00000000E+00
  0.00000000E+00  0.00000000E+00  0.00000000E+00
  0.00000000E+00  0.00000000E+00  0.00000000E+00
  0.00000000E+00  0.00000000E+00  0.00000000E+00
  0.00000000E+00  0.00000000E+00  0.00000000E+00
  0.00000000E+00  0.00000000E+00  0.00000000E+00
  0.00000000E+00  0.00000000E+00  0.00000000E+00
  0.00000000E+00  0.00000000E+00  0.00000000E+00
  0.00000000E+00  0.00000000E+00  0.00000000E+00
