Al21, -62.61354009 <s> Ag </s>          
   1.00000000000000     
    19.9911249761095000    0.0000000000000000    0.0000000000000000
     0.0000000000000000   19.9911249761095000    0.0000000000000000
     0.0000000000000000    0.0000000000000000   19.9911249761095000
   Ag
    21
Direct
  0.3549842922609482  0.5466139001687321  0.4490535133215623
  0.3798765444690220  0.5415218722726197  0.5900934354445349
  0.3859214455286736  0.4201219327522931  0.5023989914363326
  0.4588277611897235  0.6095338907997613  0.3768811175848393
  0.4238440120164951  0.6546641835293509  0.5147845575891240
  0.4459025515552734  0.4659221023502165  0.3697386641874697
  0.5139062233491355  0.3849458560985184  0.4631689323265112
  0.4841399756587602  0.5253592510387428  0.4922875638372067
  0.4601376140683642  0.3125244195699612  0.5658107056494850
  0.4028838380236699  0.6620643149271762  0.6588414964668197
  0.5731950758643999  0.4001058160993147  0.3391747174799059
  0.5975631980687296  0.3842313104721983  0.5769720073685256
  0.4768288826354872  0.4402499577331953  0.6092124478963524
  0.6421125166472359  0.4368661803739465  0.4545889917125325
  0.4861854047469847  0.5532490107020274  0.6840180059170401
  0.5319504575327585  0.6571797040451439  0.6045262424058808
  0.5618004735732852  0.6389370828407183  0.4723150539366028
  0.5758835021121148  0.5338906269838808  0.3788187422781398
  0.7116645576953285  0.4698798909785530  0.5712112014029406
  0.5890806836805488  0.5300939909258201  0.5833095118762356
  0.6790093683282188  0.5677123163815188  0.4758740395594103
 
  0.00000000E+00  0.00000000E+00  0.00000000E+00
  0.00000000E+00  0.00000000E+00  0.00000000E+00
  0.00000000E+00  0.00000000E+00  0.00000000E+00
  0.00000000E+00  0.00000000E+00  0.00000000E+00
  0.00000000E+00  0.00000000E+00  0.00000000E+00
  0.00000000E+00  0.00000000E+00  0.00000000E+00
  0.00000000E+00  0.00000000E+00  0.00000000E+00
  0.00000000E+00  0.00000000E+00  0.00000000E+00
  0.00000000E+00  0.00000000E+00  0.00000000E+00
  0.00000000E+00  0.00000000E+00  0.00000000E+00
  0.00000000E+00  0.00000000E+00  0.00000000E+00
  0.00000000E+00  0.00000000E+00  0.00000000E+00
  0.00000000E+00  0.00000000E+00  0.00000000E+00
  0.00000000E+00  0.00000000E+00  0.00000000E+00
  0.00000000E+00  0.00000000E+00  0.00000000E+00
  0.00000000E+00  0.00000000E+00  0.00000000E+00
  0.00000000E+00  0.00000000E+00  0.00000000E+00
  0.00000000E+00  0.00000000E+00  0.00000000E+00
  0.00000000E+00  0.00000000E+00  0.00000000E+00
  0.00000000E+00  0.00000000E+00  0.00000000E+00
  0.00000000E+00  0.00000000E+00  0.00000000E+00
