Ag18, -747.0 <s> Ag </s>                
   1.00000000000000     
    19.5178620000000009    0.0000000000000000    0.0000000000000000
     0.0000000000000000   19.5178620000000009    0.0000000000000000
     0.0000000000000000    0.0000000000000000   19.5178620000000009
   Ag
    18
Direct
  0.5000000000000000  0.5000000000000000  0.6700020713981573
  0.5000000000000000  0.6174131577562590  0.3416213765385091
  0.6580064305175568  0.5000000000000000  0.4850556622146414
  0.5000000000000000  0.3452527614119327  0.5762823627619398
  0.6103414093360677  0.5713337311980672  0.6002488740299803
  0.5756990663508469  0.6144232017951088  0.4627673996208593
  0.5756990663508469  0.3855767982048912  0.4627673996208593
  0.4260278417481111  0.5000000000000000  0.3714219847690905
  0.4243009336491531  0.3855767982048912  0.4627673996208593
  0.3896585906639322  0.5713337311980672  0.6002488740299803
  0.3896585906639322  0.4286662688019328  0.6002488740299803
  0.5000000000000000  0.6547472385880672  0.5762823627619398
  0.3419935694824432  0.5000000000000000  0.4850556622146414
  0.5000000000000000  0.3825868422437411  0.3416213765385091
  0.6103414093360677  0.4286662688019328  0.6002488740299803
  0.4243009336491531  0.6144232017951088  0.4627673996208593
  0.5739721582518890  0.5000000000000000  0.3714219847690905
  0.5000000000000000  0.5000000000000000  0.5291700614300947
 
  0.00000000E+00  0.00000000E+00  0.00000000E+00
  0.00000000E+00  0.00000000E+00  0.00000000E+00
  0.00000000E+00  0.00000000E+00  0.00000000E+00
  0.00000000E+00  0.00000000E+00  0.00000000E+00
  0.00000000E+00  0.00000000E+00  0.00000000E+00
  0.00000000E+00  0.00000000E+00  0.00000000E+00
  0.00000000E+00  0.00000000E+00  0.00000000E+00
  0.00000000E+00  0.00000000E+00  0.00000000E+00
  0.00000000E+00  0.00000000E+00  0.00000000E+00
  0.00000000E+00  0.00000000E+00  0.00000000E+00
  0.00000000E+00  0.00000000E+00  0.00000000E+00
  0.00000000E+00  0.00000000E+00  0.00000000E+00
  0.00000000E+00  0.00000000E+00  0.00000000E+00
  0.00000000E+00  0.00000000E+00  0.00000000E+00
  0.00000000E+00  0.00000000E+00  0.00000000E+00
  0.00000000E+00  0.00000000E+00  0.00000000E+00
  0.00000000E+00  0.00000000E+00  0.00000000E+00
  0.00000000E+00  0.00000000E+00  0.00000000E+00
