Mo10, -838.0 <s> Cu </s>                
   1.00000000000000     
    18.3024200000000015    0.0000000000000000    0.0000000000000000
     0.0000000000000000   18.3024200000000015    0.0000000000000000
     0.0000000000000000    0.0000000000000000   18.3024200000000015
   Cu
    10
Direct
  0.6443669178292489  0.5007530295960646  0.5599764627280897
  0.6240502627160890  0.5877288250863287  0.4647217304239747
  0.5848128509747357  0.4633913994616117  0.4490824053209663
  0.5368969989277396  0.5762391629235406  0.5625813647406936
  0.5124262600037409  0.4459557198180965  0.5585734051825855
  0.4151960507741788  0.5365967033749151  0.5509112739748231
  0.4875747595792160  0.5540409131738941  0.4414386334346746
  0.4631021311354292  0.4237638147794825  0.4374356833200947
  0.3556448341216209  0.4992546389663791  0.4400126386721361
  0.3759289199742024  0.4122757928196731  0.5352664022019541
 
  0.00000000E+00  0.00000000E+00  0.00000000E+00
  0.00000000E+00  0.00000000E+00  0.00000000E+00
  0.00000000E+00  0.00000000E+00  0.00000000E+00
  0.00000000E+00  0.00000000E+00  0.00000000E+00
  0.00000000E+00  0.00000000E+00  0.00000000E+00
  0.00000000E+00  0.00000000E+00  0.00000000E+00
  0.00000000E+00  0.00000000E+00  0.00000000E+00
  0.00000000E+00  0.00000000E+00  0.00000000E+00
  0.00000000E+00  0.00000000E+00  0.00000000E+00
  0.00000000E+00  0.00000000E+00  0.00000000E+00
