Ti12, -71.64213332 <s> Cu </s>          
   1.00000000000000     
    18.7330833914452413    0.0000000000000000    0.0000000000000000
     0.0000000000000000   18.7330833914452413    0.0000000000000000
     0.0000000000000000    0.0000000000000000   18.7330833914452413
   Cu
    12
Direct
  0.4214113608746710  0.3990782776756675  0.4122642108223241
  0.3778076676474046  0.5158497373094268  0.4590053924225049
  0.5304564308238645  0.4128191179610409  0.3456703780567011
  0.3514943402959536  0.5180309257241654  0.5847955540345154
  0.5151568147641334  0.5018128719420637  0.4472698385940471
  0.5377111350398596  0.3789418445179104  0.4719059328878989
  0.4604165569967197  0.5679883584034017  0.5439949955557469
  0.4376949998702107  0.5090281469172460  0.3447385081433751
  0.4366625058939608  0.3063156342155062  0.4995287635253668
  0.4957825826761906  0.2936450236106619  0.3841886357479447
  0.4536337384352340  0.6151504625542706  0.4239694110695948
  0.4395937189958666  0.4338607196195918  0.5399662171992561
 
  0.00000000E+00  0.00000000E+00  0.00000000E+00
  0.00000000E+00  0.00000000E+00  0.00000000E+00
  0.00000000E+00  0.00000000E+00  0.00000000E+00
  0.00000000E+00  0.00000000E+00  0.00000000E+00
  0.00000000E+00  0.00000000E+00  0.00000000E+00
  0.00000000E+00  0.00000000E+00  0.00000000E+00
  0.00000000E+00  0.00000000E+00  0.00000000E+00
  0.00000000E+00  0.00000000E+00  0.00000000E+00
  0.00000000E+00  0.00000000E+00  0.00000000E+00
  0.00000000E+00  0.00000000E+00  0.00000000E+00
  0.00000000E+00  0.00000000E+00  0.00000000E+00
  0.00000000E+00  0.00000000E+00  0.00000000E+00
