Ag13, -899.0 <s> Pd </s>                
   1.00000000000000     
    21.1511500000000012    0.0000000000000000    0.0000000000000000
     0.0000000000000000   21.1511500000000012    0.0000000000000000
     0.0000000000000000    0.0000000000000000   21.1511500000000012
   Pd
    13
Direct
  0.5000000000000000  0.6201998043567608  0.6101975315446480
  0.4396148049778840  0.4356880665667585  0.5134763075377653
  0.4396148049778840  0.5643119334332415  0.5134763075377653
  0.4385921114135715  0.5000000000000000  0.4054332292940630
  0.5000000000000000  0.6074527507389500  0.4008841736373225
  0.5603851950221158  0.5643119334332415  0.5134763075377653
  0.5603851950221158  0.4356880665667585  0.5134763075377653
  0.5614078885864286  0.5000000000000000  0.4054332292940630
  0.5000000000000000  0.5000000000000000  0.6091749060783513
  0.5000000000000000  0.3925472492610501  0.4008841736373225
  0.5000000000000000  0.3219460637610512  0.5019449951010555
  0.5000000000000000  0.6780539362389489  0.5019449951010555
  0.5000000000000000  0.3798001956432393  0.6101975315446480
 
  0.00000000E+00  0.00000000E+00  0.00000000E+00
  0.00000000E+00  0.00000000E+00  0.00000000E+00
  0.00000000E+00  0.00000000E+00  0.00000000E+00
  0.00000000E+00  0.00000000E+00  0.00000000E+00
  0.00000000E+00  0.00000000E+00  0.00000000E+00
  0.00000000E+00  0.00000000E+00  0.00000000E+00
  0.00000000E+00  0.00000000E+00  0.00000000E+00
  0.00000000E+00  0.00000000E+00  0.00000000E+00
  0.00000000E+00  0.00000000E+00  0.00000000E+00
  0.00000000E+00  0.00000000E+00  0.00000000E+00
  0.00000000E+00  0.00000000E+00  0.00000000E+00
  0.00000000E+00  0.00000000E+00  0.00000000E+00
  0.00000000E+00  0.00000000E+00  0.00000000E+00
