Rh13, -737.0 <s> Ni </s>                
   1.00000000000000     
    17.9208789999999993    0.0000000000000000    0.0000000000000000
     0.0000000000000000   17.9208789999999993    0.0000000000000000
     0.0000000000000000    0.0000000000000000   17.9208789999999993
   Ni
    13
Direct
  0.4619699039808992  0.4694122485328112  0.3813781271368854
  0.3736944704781330  0.4368908568560688  0.5520150123899863
  0.4801805141362472  0.4322037101384787  0.6367328565357954
  0.5807883732244993  0.4165187042653227  0.4284993329114297
  0.4916404225411531  0.4614194574898205  0.5078145118939059
  0.5918704258143673  0.4126759698962043  0.5729787900628371
  0.4495978566077124  0.6006065160308836  0.3715913181700624
  0.3896808972884601  0.5376129090405447  0.4682253749052605
  0.4280476090024953  0.5452280841152065  0.5937095667052567
  0.5651723399552285  0.5417388538658803  0.3860723356163329
  0.5092638442611732  0.5920211827706903  0.4921488740706514
  0.5567846831438801  0.5379570273813402  0.6086704610004158
  0.6213086506644272  0.5157144751660930  0.5001634386011529
 
  0.00000000E+00  0.00000000E+00  0.00000000E+00
  0.00000000E+00  0.00000000E+00  0.00000000E+00
  0.00000000E+00  0.00000000E+00  0.00000000E+00
  0.00000000E+00  0.00000000E+00  0.00000000E+00
  0.00000000E+00  0.00000000E+00  0.00000000E+00
  0.00000000E+00  0.00000000E+00  0.00000000E+00
  0.00000000E+00  0.00000000E+00  0.00000000E+00
  0.00000000E+00  0.00000000E+00  0.00000000E+00
  0.00000000E+00  0.00000000E+00  0.00000000E+00
  0.00000000E+00  0.00000000E+00  0.00000000E+00
  0.00000000E+00  0.00000000E+00  0.00000000E+00
  0.00000000E+00  0.00000000E+00  0.00000000E+00
  0.00000000E+00  0.00000000E+00  0.00000000E+00
