Be6, -7.65687093 <s> Ag </s>            
   1.00000000000000     
    18.5006185882381899    0.0000000000000000    0.0000000000000000
     0.0000000000000000   18.5006185882381899    0.0000000000000000
     0.0000000000000000    0.0000000000000000   18.5006185882381899
   Ag
     6
Direct
  0.6926829983399772  0.8337777371408376  0.6547320087318302
  0.6369717221396167  0.7097121442359137  0.6227013352436451
  0.6582927420223205  0.5955631601185072  0.5276377403505759
  0.6495087448231492  0.4498254637503540  0.7388695272321412
  0.6117055269173959  0.5618436552038707  0.6645567996134993
  0.5241475185173926  0.6303342438665989  0.5588474252923203
 
  0.00000000E+00  0.00000000E+00  0.00000000E+00
  0.00000000E+00  0.00000000E+00  0.00000000E+00
  0.00000000E+00  0.00000000E+00  0.00000000E+00
  0.00000000E+00  0.00000000E+00  0.00000000E+00
  0.00000000E+00  0.00000000E+00  0.00000000E+00
  0.00000000E+00  0.00000000E+00  0.00000000E+00
