Al12, -32.81593733 <s> Pd </s>          
   1.00000000000000     
    20.0513873140315511    0.0000000000000000    0.0000000000000000
     0.0000000000000000   20.0513873140315511    0.0000000000000000
     0.0000000000000000    0.0000000000000000   20.0513873140315511
   Pd
    12
Direct
  0.6071390889570440  0.5707581941364772  0.5703451437416069
  0.5449763187909721  0.5145442317780217  0.6712455836584229
  0.5655524946229454  0.4427966026444768  0.5623859178165684
  0.4730863706297304  0.5402740752788630  0.5606123997242607
  0.4543657115901670  0.4261663607897910  0.6363485923172876
  0.4251580769012317  0.4263925962721558  0.5124954306570484
  0.5291404610982519  0.4236705169649835  0.4371724283141339
  0.5547790988722040  0.5481736333737652  0.4565257614851935
  0.4231127574569835  0.5368040490623079  0.4369418863999426
  0.5108724760831693  0.5110431950607489  0.3386398930220458
  0.4082411960448963  0.4154383797183591  0.3825708280113181
  0.3838011369997521  0.5237603056491533  0.3138276046206030
 
  0.00000000E+00  0.00000000E+00  0.00000000E+00
  0.00000000E+00  0.00000000E+00  0.00000000E+00
  0.00000000E+00  0.00000000E+00  0.00000000E+00
  0.00000000E+00  0.00000000E+00  0.00000000E+00
  0.00000000E+00  0.00000000E+00  0.00000000E+00
  0.00000000E+00  0.00000000E+00  0.00000000E+00
  0.00000000E+00  0.00000000E+00  0.00000000E+00
  0.00000000E+00  0.00000000E+00  0.00000000E+00
  0.00000000E+00  0.00000000E+00  0.00000000E+00
  0.00000000E+00  0.00000000E+00  0.00000000E+00
  0.00000000E+00  0.00000000E+00  0.00000000E+00
  0.00000000E+00  0.00000000E+00  0.00000000E+00
