Cu20, -55.047207 <s> Ag </s>            
   1.00000000000000     
    18.9883997817501893    0.0000000000000000    0.0000000000000000
     0.0000000000000000   18.9883997817501893    0.0000000000000000
     0.0000000000000000    0.0000000000000000   18.9883997817501893
   Ag
    20
Direct
  0.5209344140469091  0.5549560172243311  0.4137473791242469
  0.6461760487709267  0.6420866057026936  0.4149326258993269
  0.6616757748646126  0.4920355125588158  0.3931962316483176
  0.3988056204366147  0.6198264236061642  0.4803036441153953
  0.4095337881845361  0.4627477514924533  0.4554224258290146
  0.5341377074197140  0.6724675230717372  0.5094006378831935
  0.5521706664731006  0.4218166176732806  0.4793541506492897
  0.7617354792176094  0.5734003505815916  0.4879001795462694
  0.6270606666844982  0.5407279868474957  0.5200326297146395
  0.4815106857233850  0.5307481330321164  0.5582184100516941
  0.7169262216016167  0.5390146219462577  0.6335203634328662
  0.5956937002303226  0.4437161970071892  0.6276887930516417
  0.5833421951981589  0.6031277876372446  0.6443213823173025
  0.5561185426890598  0.7470527543706252  0.6340014327275081
  0.4610339782630778  0.3929391373986516  0.5957898596474591
  0.4390402547814256  0.6558549997261865  0.6218019584969909
  0.6762997433589932  0.6774701013559962  0.5582703439592166
  0.4824674732547827  0.5078585293330361  0.7020621214776077
  0.6247931913283459  0.5145648761370554  0.7528182875508121
  0.5077117187996762  0.6447559446244433  0.7543850142045659
 
  0.00000000E+00  0.00000000E+00  0.00000000E+00
  0.00000000E+00  0.00000000E+00  0.00000000E+00
  0.00000000E+00  0.00000000E+00  0.00000000E+00
  0.00000000E+00  0.00000000E+00  0.00000000E+00
  0.00000000E+00  0.00000000E+00  0.00000000E+00
  0.00000000E+00  0.00000000E+00  0.00000000E+00
  0.00000000E+00  0.00000000E+00  0.00000000E+00
  0.00000000E+00  0.00000000E+00  0.00000000E+00
  0.00000000E+00  0.00000000E+00  0.00000000E+00
  0.00000000E+00  0.00000000E+00  0.00000000E+00
  0.00000000E+00  0.00000000E+00  0.00000000E+00
  0.00000000E+00  0.00000000E+00  0.00000000E+00
  0.00000000E+00  0.00000000E+00  0.00000000E+00
  0.00000000E+00  0.00000000E+00  0.00000000E+00
  0.00000000E+00  0.00000000E+00  0.00000000E+00
  0.00000000E+00  0.00000000E+00  0.00000000E+00
  0.00000000E+00  0.00000000E+00  0.00000000E+00
  0.00000000E+00  0.00000000E+00  0.00000000E+00
  0.00000000E+00  0.00000000E+00  0.00000000E+00
  0.00000000E+00  0.00000000E+00  0.00000000E+00
