Al47, -147 <s> Ag </s>
  1.00000000000000
    22.91310600000000     0.00000000000000     0.00000000000000
     0.00000000000000    22.91310600000000     0.00000000000000
     0.00000000000000     0.00000000000000    22.91310600000000
  Ag    
  47    
Direct
     0.64724522159401      0.43948909566184      0.46909466499377   
     0.54390431184839      0.47473734507119      0.41162790967229   
     0.55303358528593      0.44700737354677      0.66791820559225   
     0.26846120816810      0.54358266640000      0.42402643390716   
     0.61482695422275      0.54046298916855      0.62558118154738   
     0.65556445046969      0.42738049059991      0.59176116035046   
     0.49289936751217      0.56124954880717      0.48557315652658   
     0.48755839515888      0.36088771642891      0.59359788252736   
     0.43336505665499      0.64632613300446      0.56353453649749   
     0.70636467746655      0.52981544772600      0.40919141496657   
     0.32464245506779      0.43650313424177      0.60061802981849   
     0.37581251715300      0.34547106730577      0.52771415363993   
     0.36971037258299      0.56694566318813      0.48927482230790   
     0.48074740000287      0.56950686972596      0.35406560466046   
     0.66939433863116      0.64473099520637      0.39621305238582   
     0.31587535661685      0.45249877058837      0.35469377780047   
     0.47458563206772      0.38340819161558      0.34681502717379   
     0.35887813757585      0.58497001701064      0.34887792393415   
     0.54943051531728      0.46303875703490      0.54020325521838   
     0.60386566217957      0.56555595946407      0.33306648839706   
     0.41158133991043      0.49062005091176      0.29036079395767   
     0.42238450236762      0.47776304046938      0.41451782864693   
     0.36891555863283      0.55324366736886      0.62917435161844   
     0.26915460416284      0.53468032907651      0.55136917500909   
     0.58506432318174      0.35204710787865      0.40410891505269   
     0.61571458531233      0.56855939129165      0.48186486094958   
     0.71252787887104      0.51989687023606      0.53761131868169   
     0.55586585191577      0.63347924643926      0.56829419223965   
     0.32345021174458      0.44671700641466      0.47898936626011   
     0.62953349847421      0.70970630769886      0.49316920012291   
     0.31486941951124      0.64681534921084      0.56862765304363   
     0.55007947376264      0.64667603390988      0.41251545117004   
     0.67696681957531      0.63106743428365      0.57408827529045   
     0.49066261779906      0.54455921738425      0.61679701585217   
     0.30831756873339      0.65965139516421      0.43316847418095   
     0.53542986512131      0.47976994233385      0.28312773167443   
     0.42661507353753      0.45277511659854      0.67139889311645   
     0.50627457711905      0.72373840462836      0.50014128139541   
     0.59228703760822      0.34102874583758      0.52324146054021   
     0.59719120497769      0.33355056029811      0.64593407191634   
     0.36989717155567      0.35491700307852      0.40444156953017   
     0.64372677111202      0.44718346629535      0.34462163990805   
     0.42838021183953      0.65953071496459      0.42819142385500   
     0.38197034304748      0.33888414132514      0.65019703053403   
     0.42882521447612      0.46521364358703      0.54406166191228   
     0.48213289291076      0.37641227891539      0.47010862056848   
     0.57766336580267      0.36356265979926      0.28163526611744   
