Ag10, -17.91791878 <s> Cu </s>          
   1.00000000000000     
    19.5240050011033794    0.0000000000000000    0.0000000000000000
     0.0000000000000000   19.5240050011033794    0.0000000000000000
     0.0000000000000000    0.0000000000000000   19.5240050011033794
   Cu
    10
Direct
  0.4981896960908859  0.4348309136246913  0.3399374280909350
  0.3870879732578656  0.3925325878724931  0.3787178251525591
  0.4896927320461052  0.3724205276507007  0.4466164654548025
  0.4097844156910331  0.5139582837806357  0.3786041674821270
  0.3027356226828610  0.4716978842083216  0.4230810061424731
  0.5132423413037651  0.4979045964167634  0.4456429611123074
  0.3992619752054544  0.5174147391436495  0.4996230975281553
  0.3768972350163614  0.3982265415091009  0.4996420927706814
  0.5949369770321691  0.4179134471994859  0.4951702502696349
  0.4844827082950022  0.4394121552156326  0.5492763826178060
 
  0.00000000E+00  0.00000000E+00  0.00000000E+00
  0.00000000E+00  0.00000000E+00  0.00000000E+00
  0.00000000E+00  0.00000000E+00  0.00000000E+00
  0.00000000E+00  0.00000000E+00  0.00000000E+00
  0.00000000E+00  0.00000000E+00  0.00000000E+00
  0.00000000E+00  0.00000000E+00  0.00000000E+00
  0.00000000E+00  0.00000000E+00  0.00000000E+00
  0.00000000E+00  0.00000000E+00  0.00000000E+00
  0.00000000E+00  0.00000000E+00  0.00000000E+00
  0.00000000E+00  0.00000000E+00  0.00000000E+00
