Ag10, -17.91791878 <s> Cu </s>
  1.00000000000000
    19.52400500110338     0.00000000000000     0.00000000000000
     0.00000000000000    19.52400500110338     0.00000000000000
     0.00000000000000     0.00000000000000    19.52400500110338
  Cu    
  10    
Direct
     0.49688249761962      0.43462472177556      0.34056772687780   
     0.38680786787893      0.39114540905760      0.37868989506491   
     0.48966976105994      0.36981847092949      0.44640302410056   
     0.41041789747695      0.51551204153242      0.37891048526907   
     0.30313256926743      0.47133721036189      0.42104064793749   
     0.51403663713587      0.49986947481549      0.44566636269429   
     0.40047829152798      0.51819140994417      0.50080611969209   
     0.37681437412619      0.39796804826669      0.50033051878196   
     0.59456387530370      0.41955783720407      0.49492059801745   
     0.48350790522489      0.43828705273410      0.54897629818586   
