Al11, -29.54887914 <s> Ag </s>          
   1.00000000000000     
    19.5260825052943012    0.0000000000000000    0.0000000000000000
     0.0000000000000000   19.5260825052943012    0.0000000000000000
     0.0000000000000000    0.0000000000000000   19.5260825052943012
   Ag
    11
Direct
  0.5008559586439131  0.3853319233328258  0.4524599384858655
  0.6185008332095001  0.4672552098526748  0.4500850877690707
  0.4791676407454802  0.4953529503772543  0.3623265296305340
  0.6023768102788679  0.5559915034168804  0.3401376364270134
  0.5402522916105502  0.4554283508904529  0.5678064399980290
  0.5335891553065769  0.4915073941465388  0.7073257640236833
  0.5357172861675861  0.5784773550463892  0.4658732907073288
  0.4114037432473370  0.4869988850046350  0.4879876965981612
  0.5530332751242405  0.5890049741176927  0.6060956779410961
  0.4175103349808471  0.4979173656257115  0.6308207199081325
  0.4254196290206922  0.6135907433199964  0.5456748425586105
 
  0.00000000E+00  0.00000000E+00  0.00000000E+00
  0.00000000E+00  0.00000000E+00  0.00000000E+00
  0.00000000E+00  0.00000000E+00  0.00000000E+00
  0.00000000E+00  0.00000000E+00  0.00000000E+00
  0.00000000E+00  0.00000000E+00  0.00000000E+00
  0.00000000E+00  0.00000000E+00  0.00000000E+00
  0.00000000E+00  0.00000000E+00  0.00000000E+00
  0.00000000E+00  0.00000000E+00  0.00000000E+00
  0.00000000E+00  0.00000000E+00  0.00000000E+00
  0.00000000E+00  0.00000000E+00  0.00000000E+00
  0.00000000E+00  0.00000000E+00  0.00000000E+00
