Al48, -148 <s> Ag </s>                  
   1.00000000000000     
    22.9039180000000009    0.0000000000000000    0.0000000000000000
     0.0000000000000000   22.9039180000000009    0.0000000000000000
     0.0000000000000000    0.0000000000000000   22.9039180000000009
   Ag
    48
Direct
  0.6659189687932648  0.4331978432641485  0.4941018531586497
  0.5601824093135274  0.4745902375204551  0.4358237062595041
  0.5559381353330994  0.4376962692343389  0.6832646465080243
  0.2692422861702683  0.5424773992886990  0.4385893467172473
  0.6224150265825885  0.5320406536498452  0.6351724904739652
  0.6632787943692111  0.4154633671530290  0.6179626620414163
  0.5023016882036095  0.5613049511388472  0.5088527704605522
  0.4909672635413529  0.3571142701684845  0.6114724597830663
  0.4407841789518089  0.6377246183914365  0.5881579558172626
  0.7274383845485699  0.5265583861387861  0.4409102771702605
  0.3246232449965718  0.4304450529241076  0.6167838551867869
  0.3863881593269872  0.3478238974888793  0.5445351213365215
  0.3733843556794188  0.5643411671755412  0.5079588028208464
  0.4997259808722477  0.5693141397342354  0.3762233168643647
  0.6908386890447505  0.6460801860058178  0.4372258133035502
  0.3268507014644736  0.4588781074027226  0.3683543970534124
  0.4931507558581075  0.3882611832102771  0.3593966699691267
  0.3749089460655078  0.5751337654120207  0.3808432593047301
  0.5588188550869048  0.4588183342060237  0.5594932428935560
  0.6245854880319445  0.5632073182830896  0.3788109954739208
  0.4343938736583047  0.4890327674547915  0.3101419645253976
  0.4344644575681550  0.4778774168559805  0.4349151044479559
  0.3731683736123610  0.5448216211726328  0.6331253760587419
  0.2682559965178151  0.5283129014092155  0.5656581638637088
  0.5961771496089914  0.3544534579560839  0.4214944398232515
  0.6295396691577052  0.5637065156369855  0.5090464696354497
  0.7263986940999837  0.5118063336355182  0.5676828721465390
  0.5635006100078338  0.6342077018047007  0.5982990857663010
  0.3230167435869955  0.4450640306085507  0.4926386716805970
  0.6324637994344063  0.7047010681066166  0.5253382669661739
  0.3164644451087524  0.6423321531872748  0.5838101700063270
  0.5646657810145089  0.6534615022365358  0.4376511744191220
  0.6891738160997886  0.6268897791300986  0.5987407179770388
  0.4977649275421472  0.5383427174595924  0.6400602753718242
  0.3168147848913892  0.6569452964451268  0.4539291029126772
  0.5592164680633516  0.4827974010163385  0.3100754348773588
  0.4312128114351907  0.4439589344082330  0.6827672220471050
  0.5111020808582444  0.7189789202258577  0.5260100940345780
  0.5955004765279384  0.3397552450350148  0.5445562616084593
  0.5966693724237153  0.3241143190623850  0.6646240433288810
  0.3876552870966533  0.3630082844551645  0.4199832689259356
  0.6646407304040716  0.4452193263398256  0.3693540418606118
  0.4414502365260542  0.6543497089071557  0.4474963754993960
  0.3816916165415167  0.3336984926544501  0.6648960125766260
  0.4335814029769630  0.4629602949004989  0.5593194681074253
  0.4926629521707870  0.3769579770164377  0.4860574071831686
  0.5985480089366452  0.3675357759910035  0.3011755398004377
  0.3866031212801138  0.3773307548783850  0.2992159632392674
 
  0.00000000E+00  0.00000000E+00  0.00000000E+00
  0.00000000E+00  0.00000000E+00  0.00000000E+00
  0.00000000E+00  0.00000000E+00  0.00000000E+00
  0.00000000E+00  0.00000000E+00  0.00000000E+00
  0.00000000E+00  0.00000000E+00  0.00000000E+00
  0.00000000E+00  0.00000000E+00  0.00000000E+00
  0.00000000E+00  0.00000000E+00  0.00000000E+00
  0.00000000E+00  0.00000000E+00  0.00000000E+00
  0.00000000E+00  0.00000000E+00  0.00000000E+00
  0.00000000E+00  0.00000000E+00  0.00000000E+00
  0.00000000E+00  0.00000000E+00  0.00000000E+00
  0.00000000E+00  0.00000000E+00  0.00000000E+00
  0.00000000E+00  0.00000000E+00  0.00000000E+00
  0.00000000E+00  0.00000000E+00  0.00000000E+00
  0.00000000E+00  0.00000000E+00  0.00000000E+00
  0.00000000E+00  0.00000000E+00  0.00000000E+00
  0.00000000E+00  0.00000000E+00  0.00000000E+00
  0.00000000E+00  0.00000000E+00  0.00000000E+00
  0.00000000E+00  0.00000000E+00  0.00000000E+00
  0.00000000E+00  0.00000000E+00  0.00000000E+00
  0.00000000E+00  0.00000000E+00  0.00000000E+00
  0.00000000E+00  0.00000000E+00  0.00000000E+00
  0.00000000E+00  0.00000000E+00  0.00000000E+00
  0.00000000E+00  0.00000000E+00  0.00000000E+00
  0.00000000E+00  0.00000000E+00  0.00000000E+00
  0.00000000E+00  0.00000000E+00  0.00000000E+00
  0.00000000E+00  0.00000000E+00  0.00000000E+00
  0.00000000E+00  0.00000000E+00  0.00000000E+00
  0.00000000E+00  0.00000000E+00  0.00000000E+00
  0.00000000E+00  0.00000000E+00  0.00000000E+00
  0.00000000E+00  0.00000000E+00  0.00000000E+00
  0.00000000E+00  0.00000000E+00  0.00000000E+00
  0.00000000E+00  0.00000000E+00  0.00000000E+00
  0.00000000E+00  0.00000000E+00  0.00000000E+00
  0.00000000E+00  0.00000000E+00  0.00000000E+00
  0.00000000E+00  0.00000000E+00  0.00000000E+00
  0.00000000E+00  0.00000000E+00  0.00000000E+00
  0.00000000E+00  0.00000000E+00  0.00000000E+00
  0.00000000E+00  0.00000000E+00  0.00000000E+00
  0.00000000E+00  0.00000000E+00  0.00000000E+00
  0.00000000E+00  0.00000000E+00  0.00000000E+00
  0.00000000E+00  0.00000000E+00  0.00000000E+00
  0.00000000E+00  0.00000000E+00  0.00000000E+00
  0.00000000E+00  0.00000000E+00  0.00000000E+00
  0.00000000E+00  0.00000000E+00  0.00000000E+00
  0.00000000E+00  0.00000000E+00  0.00000000E+00
  0.00000000E+00  0.00000000E+00  0.00000000E+00
  0.00000000E+00  0.00000000E+00  0.00000000E+00
