Pt49, -251.38066351 <s> Ag </s>
  1.00000000000000
    22.54204827185632     0.00000000000000     0.00000000000000
     0.00000000000000    22.54204827185632     0.00000000000000
     0.00000000000000     0.00000000000000    22.54204827185632
  Ag    
  49    
Direct
     0.28773280299080      0.42610115324856      0.49728722023825   
     0.39636994413313      0.38592606114129      0.45687374921022   
     0.32392598892377      0.45711542160444      0.38393895505320   
     0.36974486943193      0.38961911672061      0.57984811030356   
     0.45811573198750      0.38275935679648      0.65992960574455   
     0.30170415634291      0.54368818427378      0.47255562920414   
     0.33320712192090      0.50584547749688      0.57976866081758   
     0.47842110292313      0.35256080306235      0.54092435771085   
     0.36864063756810      0.45973386932122      0.68427141592114   
     0.57097007249272      0.35963526864590      0.62748007770164   
     0.51185130200385      0.36731552849020      0.42306481892081   
     0.43775191484003      0.48696016595309      0.51059992256775   
     0.59764836450707      0.34730925703779      0.50999190911881   
     0.44284042977815      0.44957707840529      0.35998557462036   
     0.47853920958020      0.50422596678268      0.71250821681137   
     0.39466536466914      0.55356201874764      0.39521979164336   
     0.54811665986805      0.40985443893267      0.73869513983759   
     0.52446760656524      0.47195439085543      0.60204564526265   
     0.48396814176357      0.58109903681886      0.56669199998189   
     0.68420044361325      0.38129049637472      0.59099007605468   
     0.33935483505219      0.62516504292062      0.55859271468240   
     0.39394408483937      0.57522885150592      0.65827960047957   
     0.56259751985603      0.45716317830924      0.35438899417610   
     0.43350225441168      0.68370692456961      0.51054417277947   
     0.50703437128327      0.62144907984758      0.68521223801830   
     0.51306027301512      0.57079413233665      0.44972046796667   
     0.44589446705588      0.66415093601914      0.38948615362146   
     0.58968258452637      0.54889541380393      0.73201569041084   
     0.49831322136405      0.55517344681389      0.32859497724068   
     0.63305533554060      0.36735704182282      0.39344161849903   
     0.53336881679008      0.69416861564796      0.58231750182765   
     0.63482487756905      0.45856298770268      0.67041425129150   
     0.55770633117734      0.46404357910772      0.48404343517298   
     0.33741711018835      0.65238417689424      0.43770889348955   
     0.41992080079858      0.68845155509466      0.63110000733135   
     0.59989297300684      0.55315060092079      0.55636022193812   
     0.54389257279888      0.69792421088667      0.45846280983154   
     0.62209560608853      0.63418423704159      0.64586402799542   
     0.62862486660245      0.61845583111364      0.41892049059442   
     0.68362896802861      0.43410529112129      0.48289112753938   
     0.70583305195796      0.55553065189672      0.68920980380609   
     0.55380241532915      0.66361834841469      0.33720844079466   
     0.61862858994572      0.56008675796327      0.31423916612409   
     0.63799533998044      0.66825147478006      0.52804931029456   
     0.70949076540819      0.49864930042446      0.58111819427033   
     0.68443626843430      0.47404677693141      0.37190906977959   
     0.73003451695098      0.61489289638981      0.58266507262110   
     0.73001737768614      0.58351819687366      0.35718746729309   
     0.71471889811695      0.55640833184197      0.47303416311222   
