Pt47, -236.83357559 <s> Ag </s>
  1.00000000000000
    23.02528583781069     0.00000000000000     0.00000000000000
     0.00000000000000    23.02528583781069     0.00000000000000
     0.00000000000000     0.00000000000000    23.02528583781069
  Ag    
  47    
Direct
     0.51065537927977      0.62854762143938      0.72516663667201   
     0.56934457395169      0.52573809320800      0.74869456599560   
     0.44461422412949      0.61460112171131      0.63125570230372   
     0.66457478034837      0.69002591808021      0.61890141820044   
     0.54241808941823      0.68641561491923      0.62020783290936   
     0.45666571180222      0.51962390132157      0.70392649327473   
     0.44225309710709      0.70746791177072      0.55493475024760   
     0.61392214930859      0.60448602190625      0.67718838364422   
     0.37924853169127      0.51054728841833      0.61067947910361   
     0.60416408723835      0.73585500048473      0.52801314355938   
     0.64961068827590      0.48792174741697      0.66726291034090   
     0.70973897559377      0.57894716709918      0.60892326162756   
     0.67977888756733      0.64023722758197      0.51265574699293   
     0.54134497611679      0.43836367050985      0.67267689453540   
     0.54741688590743      0.63000873943296      0.51292909304282   
     0.51020892723262      0.72947701112392      0.45625203504408   
     0.49548303514883      0.51205776352148      0.58293285548376   
     0.42743920338541      0.41186855405100      0.65570550790712   
     0.43358396285170      0.59421034241048      0.51622249219445   
     0.32150277472763      0.59465563382278      0.47491826032401   
     0.60550250874088      0.54029079761612      0.56078844217263   
     0.71018551464193      0.46673148880435      0.56811445599592   
     0.61407664968376      0.68219945398375      0.41623031888552   
     0.40310159247944      0.67866819748627      0.44037402503572   
     0.67540758786048      0.51640063772724      0.46084300952017   
     0.30752040483766      0.48194403994016      0.52548672700641   
     0.51153544160438      0.34462511806931      0.60469549922727   
     0.50597362781484      0.62892196296946      0.39010393105770   
     0.42005097519626      0.48127256144739      0.48267652409848   
     0.71191802124506      0.61454624578781      0.40522069923053   
     0.60918016089125      0.57007818605089      0.36809637781495   
     0.63942332021298      0.40780244705640      0.49377350379874   
     0.52347868004825      0.42005623474866      0.51605270010017   
     0.40840097052519      0.37514365074032      0.54216077204567   
     0.62916320181084      0.38623079920424      0.61081596614648   
     0.40458918095595      0.56715183670196      0.39227532462192   
     0.30484093990766      0.49810851080490      0.40756835652222   
     0.33265781456853      0.39048661521478      0.44904905085739   
     0.53813772460105      0.52128615440532      0.46022034570759   
     0.48574542776742      0.28090662127355      0.50554986614636   
     0.50348945914314      0.51762884275668      0.34634072222141   
     0.59885681641277      0.29982176942900      0.53540504930994   
     0.60315435503883      0.45083416998053      0.38818046483675   
     0.40451488020444      0.44881426355139      0.36350009100127   
     0.44126771386890      0.35354374967861      0.42568533687943   
     0.56056064071988      0.34305291249465      0.42928720410480   
     0.50870478653626      0.39780372024642      0.33746511065133   
