Al10, -26.42114976 <s> Ag </s>          
   1.00000000000000     
    18.2532693693482493    0.0000000000000000    0.0000000000000000
     0.0000000000000000   18.2532693693482493    0.0000000000000000
     0.0000000000000000    0.0000000000000000   18.2532693693482493
   Ag
    10
Direct
  0.3647828781842005  0.5870493524636083  0.4392301719336178
  0.4520544958116162  0.4583275664298649  0.4277401183408834
  0.3963337348943592  0.3649719163453498  0.5409855488879808
  0.5018537039608159  0.5858251969056889  0.4964756421356462
  0.3842580167910912  0.5104391713630226  0.5668725255514244
  0.6018907961986220  0.4914155741831011  0.4265187685677684
  0.5097743934503125  0.5592676015919359  0.6466913193021904
  0.5274741985482854  0.4389849804810275  0.5557159740304616
  0.6375613038543156  0.5519959257216436  0.5602348318286886
  0.7342399836783865  0.5635044905860391  0.4503099367452681
 
  0.00000000E+00  0.00000000E+00  0.00000000E+00
  0.00000000E+00  0.00000000E+00  0.00000000E+00
  0.00000000E+00  0.00000000E+00  0.00000000E+00
  0.00000000E+00  0.00000000E+00  0.00000000E+00
  0.00000000E+00  0.00000000E+00  0.00000000E+00
  0.00000000E+00  0.00000000E+00  0.00000000E+00
  0.00000000E+00  0.00000000E+00  0.00000000E+00
  0.00000000E+00  0.00000000E+00  0.00000000E+00
  0.00000000E+00  0.00000000E+00  0.00000000E+00
  0.00000000E+00  0.00000000E+00  0.00000000E+00
