Pt10, -42.02251432 <s> Ag </s>          
   1.00000000000000     
    18.4016328925549502    0.0000000000000000    0.0000000000000000
     0.0000000000000000   18.4016328925549502    0.0000000000000000
     0.0000000000000000    0.0000000000000000   18.4016328925549502
   Ag
    10
Direct
  0.6954544466337188  0.5178597446050527  0.4662963362452699
  0.6062094045815595  0.5642906277348504  0.5791548663761749
  0.5726989135889582  0.4378479138817997  0.4980018107325521
  0.4981282927953186  0.4721536823076204  0.6277728605567703
  0.5660251506554947  0.6968523908404229  0.5191073897440073
  0.4448471085505599  0.3652649178720673  0.5311890438245073
  0.5608667535702894  0.5752505263278350  0.4290023634194974
  0.4592966310057218  0.5941986304010136  0.5428867656984199
  0.4405023957605423  0.4856822733965518  0.4358527567011087
  0.3583906114436875  0.4842896040168683  0.5655426018200884
 
  0.00000000E+00  0.00000000E+00  0.00000000E+00
  0.00000000E+00  0.00000000E+00  0.00000000E+00
  0.00000000E+00  0.00000000E+00  0.00000000E+00
  0.00000000E+00  0.00000000E+00  0.00000000E+00
  0.00000000E+00  0.00000000E+00  0.00000000E+00
  0.00000000E+00  0.00000000E+00  0.00000000E+00
  0.00000000E+00  0.00000000E+00  0.00000000E+00
  0.00000000E+00  0.00000000E+00  0.00000000E+00
  0.00000000E+00  0.00000000E+00  0.00000000E+00
  0.00000000E+00  0.00000000E+00  0.00000000E+00
