Al13, -36.95588884 <s> Ag </s>          
   1.00000000000000     
    18.2582575704654104    0.0000000000000000    0.0000000000000000
     0.0000000000000000   18.2582575704654104    0.0000000000000000
     0.0000000000000000    0.0000000000000000   18.2582575704654104
   Ag
    13
Direct
  0.6549226481180156  0.5758914776472998  0.5136894381433650
  0.5673058544964443  0.6074020429248029  0.3934564635465640
  0.6601834962454105  0.4294343414870250  0.5813223199206791
  0.5750909737650113  0.4596092005904291  0.4573513018992163
  0.5373743316931300  0.6694054817346001  0.5323770800253622
  0.5431132351221019  0.5250613909402523  0.6038453238191313
  0.4686975611654053  0.3536691302993542  0.4292946335033320
  0.4135988128041987  0.6035892103001158  0.5907388247522573
  0.4204171428615890  0.6241804266175278  0.4410994990648499
  0.5163817149940381  0.3736153642121813  0.5741038285458623
  0.4176099565625738  0.4569102168439973  0.6583049746457830
  0.4627245942382734  0.5013983735520625  0.3630885002096615
  0.4196143492287455  0.4764890702533863  0.5067458043590642
 
  0.00000000E+00  0.00000000E+00  0.00000000E+00
  0.00000000E+00  0.00000000E+00  0.00000000E+00
  0.00000000E+00  0.00000000E+00  0.00000000E+00
  0.00000000E+00  0.00000000E+00  0.00000000E+00
  0.00000000E+00  0.00000000E+00  0.00000000E+00
  0.00000000E+00  0.00000000E+00  0.00000000E+00
  0.00000000E+00  0.00000000E+00  0.00000000E+00
  0.00000000E+00  0.00000000E+00  0.00000000E+00
  0.00000000E+00  0.00000000E+00  0.00000000E+00
  0.00000000E+00  0.00000000E+00  0.00000000E+00
  0.00000000E+00  0.00000000E+00  0.00000000E+00
  0.00000000E+00  0.00000000E+00  0.00000000E+00
  0.00000000E+00  0.00000000E+00  0.00000000E+00
