Al13, -36.95588884 <s> Ag </s>          
   1.00000000000000     
    18.2582575704654104    0.0000000000000000    0.0000000000000000
     0.0000000000000000   18.2582575704654104    0.0000000000000000
     0.0000000000000000    0.0000000000000000   18.2582575704654104
   Ag
    13
Direct
  0.6549048756592879  0.5758693963280936  0.5137124369124502
  0.5673295383483463  0.6074637017377494  0.3933958294987920
  0.6602440283220817  0.4294401444722022  0.5813493675293424
  0.5751220283938773  0.4595842830446697  0.4573540162439566
  0.5374305919456200  0.6694255081804034  0.5323716555939915
  0.5431067268089217  0.5250684504350612  0.6038944379672214
  0.4687281433445797  0.3536508572461908  0.4292842202784382
  0.4136099253196206  0.6035682211374990  0.5907160913320324
  0.4203732453169982  0.6242174490105358  0.4411252436614401
  0.5163508866990324  0.3736036796551959  0.5740647846591851
  0.4176038174048684  0.4569384179586451  0.6583067160574697
  0.4626782441057558  0.5013796345977460  0.3630909664538485
  0.4195526196259544  0.4764459835990282  0.5067522262469668
 
  0.00000000E+00  0.00000000E+00  0.00000000E+00
  0.00000000E+00  0.00000000E+00  0.00000000E+00
  0.00000000E+00  0.00000000E+00  0.00000000E+00
  0.00000000E+00  0.00000000E+00  0.00000000E+00
  0.00000000E+00  0.00000000E+00  0.00000000E+00
  0.00000000E+00  0.00000000E+00  0.00000000E+00
  0.00000000E+00  0.00000000E+00  0.00000000E+00
  0.00000000E+00  0.00000000E+00  0.00000000E+00
  0.00000000E+00  0.00000000E+00  0.00000000E+00
  0.00000000E+00  0.00000000E+00  0.00000000E+00
  0.00000000E+00  0.00000000E+00  0.00000000E+00
  0.00000000E+00  0.00000000E+00  0.00000000E+00
  0.00000000E+00  0.00000000E+00  0.00000000E+00
