Pd10 https://doi.org/10.1039/C7CP02240A <s> Pd </s>
  1.00000000000000
    16.56476600000000     0.00000000000000     0.00000000000000
     0.00000000000000    16.56476600000000     0.00000000000000
     0.00000000000000     0.00000000000000    16.56476600000000
  Pd    
  10    
Cartesian
     0.34520000000000      0.01046700000000     -0.93470600000000   
     0.24127600000000      1.36088500000000      1.62812300000000   
     0.25683200000000     -1.38750900000000      1.60308000000000   
     1.55968000000000      2.29541800000000     -0.43329900000000   
     1.58551400000000     -2.26934800000000     -0.47488700000000   
    -1.13583000000000      2.15401000000000     -0.53007600000000   
    -1.11145300000000     -2.15670100000000     -0.56931300000000   
     2.37841300000000      0.00667900000000      0.74394300000000   
    -1.98360500000000     -0.01840900000000      0.79100100000000   
    -2.13602600000000      0.00450900000000     -1.82386800000000   
