Be5, -4.11131878 <s> Ag </s>
  1.00000000000000
    17.71556699590643     0.00000000000000     0.00000000000000
     0.00000000000000    17.71556699590643     0.00000000000000
     0.00000000000000     0.00000000000000    17.71556699590643
  Ag    
  5     
Direct
     0.80550252692416      0.60841153836788      0.75947521802859   
     0.53456523601290      0.63714284821676      0.53723661813993   
     0.62714511571921      0.61391324723867      0.41320142510400   
     0.51502398830500      0.65026929504177      0.68698834170358   
     0.65223317990845      0.63885108532093      0.75061913256780   
