Al13, -36.11813506 <s> Ni </s>          
   1.00000000000000     
    20.0231734671589194    0.0000000000000000    0.0000000000000000
     0.0000000000000000   20.0231734671589194    0.0000000000000000
     0.0000000000000000    0.0000000000000000   20.0231734671589194
   Ni
    13
Direct
  0.4097805295755028  0.5263318873242010  0.3892935036881811
  0.5210029649984845  0.5122343214230736  0.4271943878084476
  0.3619483430990883  0.4275001520345866  0.3579784495175050
  0.6264512037460341  0.4780289571500785  0.4629461361574784
  0.4773668360098588  0.4533873829022156  0.3274929515399551
  0.3202343888984530  0.4874044646091216  0.4533813976906988
  0.5345313457898916  0.4288492641385042  0.5093341914663042
  0.4272011268282313  0.4879013816796738  0.5012995817098993
  0.3462145843635788  0.3782592767972886  0.4688308855651208
  0.3350047710248962  0.4457838043407683  0.5625904941751199
  0.5658073719888217  0.4135397655183931  0.3912957373431190
  0.4522528614068660  0.4014225740110459  0.4269260362636502
  0.4344469730354530  0.3824699895940096  0.5464404376101440
 
  0.00000000E+00  0.00000000E+00  0.00000000E+00
  0.00000000E+00  0.00000000E+00  0.00000000E+00
  0.00000000E+00  0.00000000E+00  0.00000000E+00
  0.00000000E+00  0.00000000E+00  0.00000000E+00
  0.00000000E+00  0.00000000E+00  0.00000000E+00
  0.00000000E+00  0.00000000E+00  0.00000000E+00
  0.00000000E+00  0.00000000E+00  0.00000000E+00
  0.00000000E+00  0.00000000E+00  0.00000000E+00
  0.00000000E+00  0.00000000E+00  0.00000000E+00
  0.00000000E+00  0.00000000E+00  0.00000000E+00
  0.00000000E+00  0.00000000E+00  0.00000000E+00
  0.00000000E+00  0.00000000E+00  0.00000000E+00
  0.00000000E+00  0.00000000E+00  0.00000000E+00
