Al13, -36.11813506 <s> Ni </s>          
   1.00000000000000     
    20.0231734671589194    0.0000000000000000    0.0000000000000000
     0.0000000000000000   20.0231734671589194    0.0000000000000000
     0.0000000000000000    0.0000000000000000   20.0231734671589194
   Ni
    13
Direct
  0.3912954202660125  0.5631984274428902  0.3692004713879585
  0.5513994053026221  0.5433620559400185  0.4264398007778836
  0.3508957410408800  0.4257083748303715  0.3522001685860435
  0.6722458150583948  0.4865260442068691  0.4615966226470791
  0.4786909461537390  0.4591181967463778  0.3301428269893412
  0.2815648193785251  0.5050343351718007  0.4517247753417801
  0.5540454069620907  0.4277808409016127  0.5177178813944997
  0.4177193547983475  0.4851026167830441  0.4835934831630503
  0.3203515411308185  0.3634354852626860  0.4723852319894843
  0.3119560223302226  0.4469410923252498  0.5819540631759823
  0.5949238260076340  0.4055182135005763  0.3826352347755975
  0.4624616678478984  0.3456472308489780  0.4268974099785494
  0.4246933344879680  0.3657403075624922  0.5685162203283739
 
  0.00000000E+00  0.00000000E+00  0.00000000E+00
  0.00000000E+00  0.00000000E+00  0.00000000E+00
  0.00000000E+00  0.00000000E+00  0.00000000E+00
  0.00000000E+00  0.00000000E+00  0.00000000E+00
  0.00000000E+00  0.00000000E+00  0.00000000E+00
  0.00000000E+00  0.00000000E+00  0.00000000E+00
  0.00000000E+00  0.00000000E+00  0.00000000E+00
  0.00000000E+00  0.00000000E+00  0.00000000E+00
  0.00000000E+00  0.00000000E+00  0.00000000E+00
  0.00000000E+00  0.00000000E+00  0.00000000E+00
  0.00000000E+00  0.00000000E+00  0.00000000E+00
  0.00000000E+00  0.00000000E+00  0.00000000E+00
  0.00000000E+00  0.00000000E+00  0.00000000E+00
