Pt39, -193.33630147 <s> Ag </s>
  1.00000000000000
    22.96880018638019     0.00000000000000     0.00000000000000
     0.00000000000000    22.96880018638019     0.00000000000000
     0.00000000000000     0.00000000000000    22.96880018638019
  Ag    
  39    
Direct
     0.57682311180325      0.72684820673807      0.62609701280954   
     0.65792686413176      0.65964713240733      0.56762057762510   
     0.54335136590543      0.65062789789146      0.54067718306755   
     0.36202038358363      0.67535601786274      0.62569073652641   
     0.48061150753619      0.65345496467564      0.64684626596369   
     0.42687703136656      0.63821321432985      0.53593765976382   
     0.59461708506685      0.61890243745549      0.66572313236730   
     0.61296491414553      0.59103620652275      0.46802228539583   
     0.49452843648546      0.60096440567469      0.44557000247353   
     0.70647176951413      0.57915591757165      0.64397580177037   
     0.31893462338678      0.58639206437643      0.55569323630514   
     0.56559700780864      0.53300351631516      0.56648779610315   
     0.40149370937868      0.56449758892717      0.64062292636247   
     0.37355895180105      0.58107180320666      0.44522314951925   
     0.50784727395667      0.53840645822321      0.68342765928480   
     0.71621558371989      0.56475375066225      0.52787602309732   
     0.62354915457888      0.51314387824763      0.70609231012065   
     0.43869320475969      0.57277466284360      0.34574803306370   
     0.70717593642558      0.55010570080510      0.41081155078778   
     0.43414953901498      0.45123891269189      0.64857032804519   
     0.50232350280768      0.56016930977535      0.25259473423546   
     0.31820655667590      0.48079181559383      0.62224064106936   
     0.45663610971285      0.51045729370272      0.53217457594945   
     0.66565946133367      0.47305241412729      0.60279150055852   
     0.67986856581340      0.46188441075811      0.48571361719205   
     0.54311820655352      0.48874695155256      0.45178844455637   
     0.62967306261125      0.47141119409688      0.37267886415207   
     0.40603281737114      0.47660312146944      0.40379697838519   
     0.51529611249938      0.48184957579113      0.33294082359994   
     0.55435122821639      0.43666095240450      0.63916871592476   
     0.34479570861245      0.47974184596746      0.50566266082815   
     0.36481303348358      0.38348337520792      0.57404593398163   
     0.60124834184619      0.39205882845283      0.53972823987881   
     0.48279123357584      0.39235378954458      0.55496958615389   
     0.64359950880472      0.36390720655250      0.43143387034837   
     0.44960520590525      0.38034179276232      0.35457552462192   
     0.56913432690665      0.37559983574397      0.33648048095754   
     0.40518868862269      0.37540070283552      0.46401204165953   
     0.52594398972214      0.36758396167663      0.44818221093874   
