Pt10, -42.26364208 <s> Cu </s>          
   1.00000000000000     
    18.2801955541774390    0.0000000000000000    0.0000000000000000
     0.0000000000000000   18.2801955541774390    0.0000000000000000
     0.0000000000000000    0.0000000000000000   18.2801955541774390
   Cu
    10
Direct
  0.5482246537665408  0.4622646534262283  0.4299778585096968
  0.4009899159082851  0.3504454066608836  0.3890499690790985
  0.5247610451016751  0.3318902206200650  0.4293914611216118
  0.5002769218269215  0.4008985585940397  0.5354380141674984
  0.5574379658261178  0.5918201477965946  0.4498836977193969
  0.4134453097546371  0.4618049862304531  0.6122235522725891
  0.3754163678231581  0.4210883924650121  0.4937486228463181
  0.4187891758291502  0.4816343030942054  0.3861794623241606
  0.4347977604324535  0.6104050449811959  0.4074776008270481
  0.4585260275467820  0.5261917570209917  0.5063364586290747
 
  0.00000000E+00  0.00000000E+00  0.00000000E+00
  0.00000000E+00  0.00000000E+00  0.00000000E+00
  0.00000000E+00  0.00000000E+00  0.00000000E+00
  0.00000000E+00  0.00000000E+00  0.00000000E+00
  0.00000000E+00  0.00000000E+00  0.00000000E+00
  0.00000000E+00  0.00000000E+00  0.00000000E+00
  0.00000000E+00  0.00000000E+00  0.00000000E+00
  0.00000000E+00  0.00000000E+00  0.00000000E+00
  0.00000000E+00  0.00000000E+00  0.00000000E+00
  0.00000000E+00  0.00000000E+00  0.00000000E+00
