Al15, -43.1339615 <s> Ag </s>           
   1.00000000000000     
    19.5089086897744686    0.0000000000000000    0.0000000000000000
     0.0000000000000000   19.5089086897744686    0.0000000000000000
     0.0000000000000000    0.0000000000000000   19.5089086897744686
   Ag
    15
Direct
  0.3725872637039475  0.4717620639815965  0.5445620136406729
  0.5063471876429685  0.4953327721694142  0.4897735613430340
  0.5809910519234224  0.3914658685140294  0.4272138131188005
  0.4063573218982178  0.6017652791377397  0.4916013105808429
  0.4626015548317359  0.5595844392325112  0.6209565579037822
  0.3970574379873401  0.4876161534673693  0.3990921430314105
  0.5763516734564190  0.5002854256361071  0.6833135852707777
  0.5977957938066951  0.5865674965315177  0.5705260036649465
  0.4966761708452905  0.6872414884122326  0.5648483751341313
  0.5281966446207375  0.5096322096137019  0.3502324885220070
  0.6224350035743175  0.4413040892046040  0.5599244186084842
  0.6419917454131875  0.5254324325913382  0.4439943977844987
  0.4487400823744857  0.3668453821931127  0.4720508399041846
  0.5388596140827904  0.6271895177101889  0.4400701038513223
  0.4887895583296335  0.4132001002093124  0.6076680873993219
 
  0.00000000E+00  0.00000000E+00  0.00000000E+00
  0.00000000E+00  0.00000000E+00  0.00000000E+00
  0.00000000E+00  0.00000000E+00  0.00000000E+00
  0.00000000E+00  0.00000000E+00  0.00000000E+00
  0.00000000E+00  0.00000000E+00  0.00000000E+00
  0.00000000E+00  0.00000000E+00  0.00000000E+00
  0.00000000E+00  0.00000000E+00  0.00000000E+00
  0.00000000E+00  0.00000000E+00  0.00000000E+00
  0.00000000E+00  0.00000000E+00  0.00000000E+00
  0.00000000E+00  0.00000000E+00  0.00000000E+00
  0.00000000E+00  0.00000000E+00  0.00000000E+00
  0.00000000E+00  0.00000000E+00  0.00000000E+00
  0.00000000E+00  0.00000000E+00  0.00000000E+00
  0.00000000E+00  0.00000000E+00  0.00000000E+00
  0.00000000E+00  0.00000000E+00  0.00000000E+00
