Ag10, -17.81083899 <s> Pd </s>          
   1.00000000000000     
    19.6286119785478199    0.0000000000000000    0.0000000000000000
     0.0000000000000000   19.6286119785478199    0.0000000000000000
     0.0000000000000000    0.0000000000000000   19.6286119785478199
   Pd
    10
Direct
  0.5026254302236782  0.5113987103998332  0.3204254131242095
  0.3966912169034890  0.5015939201438503  0.3993500276665793
  0.5258017155334734  0.5277578909062375  0.4485605581592031
  0.3164947911771026  0.4850113612793114  0.5031897464960040
  0.4929902871786968  0.4026685610704994  0.3903701752525420
  0.5177563216177296  0.5102853700409541  0.5819543771797834
  0.4351177022781629  0.4294189936974214  0.5137341359577855
  0.5685391966266145  0.4126448652382230  0.5013752301607012
  0.4137204079863173  0.5689806151403954  0.5195065740217265
  0.6229359843632216  0.4429127659717662  0.6142068158699585
 
  0.00000000E+00  0.00000000E+00  0.00000000E+00
  0.00000000E+00  0.00000000E+00  0.00000000E+00
  0.00000000E+00  0.00000000E+00  0.00000000E+00
  0.00000000E+00  0.00000000E+00  0.00000000E+00
  0.00000000E+00  0.00000000E+00  0.00000000E+00
  0.00000000E+00  0.00000000E+00  0.00000000E+00
  0.00000000E+00  0.00000000E+00  0.00000000E+00
  0.00000000E+00  0.00000000E+00  0.00000000E+00
  0.00000000E+00  0.00000000E+00  0.00000000E+00
  0.00000000E+00  0.00000000E+00  0.00000000E+00
