Pd13, -1537 <s> Pd </s>                 
   1.00000000000000     
    16.8434987599999992    0.0000000000000000    0.0000000000000000
     0.0000000000000000   16.8434987599999992    0.0000000000000000
     0.0000000000000000    0.0000000000000000   16.8434987599999992
   Pd
    13
Direct
  0.5000000000000000  0.5000000000000000  0.5000000000000000
  0.6126886190423769  0.6126886190423769  0.5000000000000000
  0.3873113809576231  0.6126886190423769  0.5000000000000000
  0.3873113809576231  0.3873113809576231  0.5000000000000000
  0.6126886190423769  0.3873113809576231  0.5000000000000000
  0.5000000000000000  0.6126886190423769  0.6126886190423769
  0.5000000000000000  0.3873113809576231  0.6126886190423769
  0.5000000000000000  0.3873113809576231  0.3873113809576231
  0.5000000000000000  0.6126886190423769  0.3873113809576231
  0.3873113809576231  0.5000000000000000  0.6126886190423769
  0.6126886190423769  0.5000000000000000  0.6126886190423769
  0.6126886190423769  0.5000000000000000  0.3873113809576231
  0.3873113809576231  0.5000000000000000  0.3873113809576231
 
  0.00000000E+00  0.00000000E+00  0.00000000E+00
  0.00000000E+00  0.00000000E+00  0.00000000E+00
  0.00000000E+00  0.00000000E+00  0.00000000E+00
  0.00000000E+00  0.00000000E+00  0.00000000E+00
  0.00000000E+00  0.00000000E+00  0.00000000E+00
  0.00000000E+00  0.00000000E+00  0.00000000E+00
  0.00000000E+00  0.00000000E+00  0.00000000E+00
  0.00000000E+00  0.00000000E+00  0.00000000E+00
  0.00000000E+00  0.00000000E+00  0.00000000E+00
  0.00000000E+00  0.00000000E+00  0.00000000E+00
  0.00000000E+00  0.00000000E+00  0.00000000E+00
  0.00000000E+00  0.00000000E+00  0.00000000E+00
  0.00000000E+00  0.00000000E+00  0.00000000E+00
