Pt33, -156.34028219 <s> Ag </s>         
   1.00000000000000     
    23.1276647727295313    0.0000000000000000    0.0000000000000000
     0.0000000000000000   23.1276647727295313    0.0000000000000000
     0.0000000000000000    0.0000000000000000   23.1276647727295313
   Ag
    33
Direct
  0.3201041464848329  0.4795624329030353  0.6543550556234921
  0.6217576368943970  0.5469988009830539  0.6569932363300132
  0.5869587817735366  0.5019060854112792  0.3547311670032384
  0.5329870022147237  0.4768422146796224  0.6941236887919304
  0.5104540142048606  0.3369743802489086  0.4707873630528998
  0.4215271053558637  0.5225036567657989  0.7100424924992410
  0.5005011109034122  0.5880712234644182  0.6432112254421903
  0.4380685093524300  0.4347258742531328  0.6303670801006223
  0.6423137871164941  0.4383680890331295  0.5940076370986521
  0.6460022910344779  0.6026943036016367  0.3690804195614000
  0.4632483737101755  0.4507443925588696  0.4992280450123422
  0.7315849968287669  0.4994970599362818  0.6440498134530024
  0.5416477841901364  0.5015450400555034  0.5747383535585395
  0.4871029981964302  0.4907606790579488  0.2915179438769369
  0.5369965552275948  0.3799254773262178  0.5817955836521035
  0.2858446419835354  0.5362478311908047  0.5476640284936121
  0.7403440609382156  0.6765716179740683  0.3870684955624497
  0.4791095917624652  0.5880780373201950  0.5143389282361499
  0.3488862190939680  0.4374102717793218  0.5424025887382324
  0.5879541185936108  0.4312890243286072  0.4799514034504543
  0.3359674395859772  0.3622566245393664  0.6345008011731449
  0.5428531598106535  0.6536516451780614  0.4342215418406776
  0.5854193899177789  0.6226235572891676  0.5626901774903509
  0.4241919150080058  0.3421085034204004  0.5538162699433979
  0.3983825968168938  0.5469591499709840  0.5909880047772240
  0.4997635587054410  0.4239721431820725  0.3879737625225503
  0.5924050233899473  0.5483744765209829  0.4646154438592711
  0.5327455589828416  0.7705202980837271  0.4207009920926192
  0.6702221623346420  0.6444861266416205  0.4800905079333846
  0.3792875957682865  0.5324857447048630  0.4684677712428263
  0.6804077486244371  0.5445695331221656  0.5467880030441286
  0.4818168573761114  0.5442622842815659  0.4025330875912350
  0.6335990035707800  0.7234691559449158  0.3926148227033490
 
  0.00000000E+00  0.00000000E+00  0.00000000E+00
  0.00000000E+00  0.00000000E+00  0.00000000E+00
  0.00000000E+00  0.00000000E+00  0.00000000E+00
  0.00000000E+00  0.00000000E+00  0.00000000E+00
  0.00000000E+00  0.00000000E+00  0.00000000E+00
  0.00000000E+00  0.00000000E+00  0.00000000E+00
  0.00000000E+00  0.00000000E+00  0.00000000E+00
  0.00000000E+00  0.00000000E+00  0.00000000E+00
  0.00000000E+00  0.00000000E+00  0.00000000E+00
  0.00000000E+00  0.00000000E+00  0.00000000E+00
  0.00000000E+00  0.00000000E+00  0.00000000E+00
  0.00000000E+00  0.00000000E+00  0.00000000E+00
  0.00000000E+00  0.00000000E+00  0.00000000E+00
  0.00000000E+00  0.00000000E+00  0.00000000E+00
  0.00000000E+00  0.00000000E+00  0.00000000E+00
  0.00000000E+00  0.00000000E+00  0.00000000E+00
  0.00000000E+00  0.00000000E+00  0.00000000E+00
  0.00000000E+00  0.00000000E+00  0.00000000E+00
  0.00000000E+00  0.00000000E+00  0.00000000E+00
  0.00000000E+00  0.00000000E+00  0.00000000E+00
  0.00000000E+00  0.00000000E+00  0.00000000E+00
  0.00000000E+00  0.00000000E+00  0.00000000E+00
  0.00000000E+00  0.00000000E+00  0.00000000E+00
  0.00000000E+00  0.00000000E+00  0.00000000E+00
  0.00000000E+00  0.00000000E+00  0.00000000E+00
  0.00000000E+00  0.00000000E+00  0.00000000E+00
  0.00000000E+00  0.00000000E+00  0.00000000E+00
  0.00000000E+00  0.00000000E+00  0.00000000E+00
  0.00000000E+00  0.00000000E+00  0.00000000E+00
  0.00000000E+00  0.00000000E+00  0.00000000E+00
  0.00000000E+00  0.00000000E+00  0.00000000E+00
  0.00000000E+00  0.00000000E+00  0.00000000E+00
  0.00000000E+00  0.00000000E+00  0.00000000E+00
