Al11, -29.62695812 <s> Ag </s>          
   1.00000000000000     
    18.3143269921612983    0.0000000000000000    0.0000000000000000
     0.0000000000000000   18.3143269921612983    0.0000000000000000
     0.0000000000000000    0.0000000000000000   18.3143269921612983
   Ag
    11
Direct
  0.6135033586520886  0.6249180472435869  0.6222661579448816
  0.5663553626979735  0.6166508089323771  0.3630217168312571
  0.5961090698448056  0.4768543905168480  0.6337221960886266
  0.5412016461869955  0.5539381912953381  0.5039725069321334
  0.5669123154376654  0.3918209469543321  0.5122894638897937
  0.4325850073124965  0.5557787692692174  0.3881896676303045
  0.5643456844853755  0.4676855375279358  0.3827276859624810
  0.4719858974900634  0.5746404899425719  0.6371308372467772
  0.3805804209260363  0.5280693269732014  0.5276053516094817
  0.4337861840917336  0.4147560071836401  0.4425998170694544
  0.4560977352176063  0.4247780844646261  0.6105953256223294
 
  0.00000000E+00  0.00000000E+00  0.00000000E+00
  0.00000000E+00  0.00000000E+00  0.00000000E+00
  0.00000000E+00  0.00000000E+00  0.00000000E+00
  0.00000000E+00  0.00000000E+00  0.00000000E+00
  0.00000000E+00  0.00000000E+00  0.00000000E+00
  0.00000000E+00  0.00000000E+00  0.00000000E+00
  0.00000000E+00  0.00000000E+00  0.00000000E+00
  0.00000000E+00  0.00000000E+00  0.00000000E+00
  0.00000000E+00  0.00000000E+00  0.00000000E+00
  0.00000000E+00  0.00000000E+00  0.00000000E+00
  0.00000000E+00  0.00000000E+00  0.00000000E+00
