Ag15, -28.85717541 <s> Ag </s>          
   1.00000000000000     
    19.9657480439534183    0.0000000000000000    0.0000000000000000
     0.0000000000000000   19.9657480439534183    0.0000000000000000
     0.0000000000000000    0.0000000000000000   19.9657480439534183
   Ag
    15
Direct
  0.6460134149188220  0.3834257076440442  0.5293915322892350
  0.5380889954493653  0.4289429188137728  0.4434876425965396
  0.4105635951921252  0.3517639293467335  0.4495139629460325
  0.5123757873261338  0.3362058155477545  0.5420357340081888
  0.4207949974255336  0.4742228200901617  0.3849072017531586
  0.6330004872298126  0.5195942001409608  0.4921360814578934
  0.5164141434772777  0.5657127672256510  0.4247747613417694
  0.3071619526116585  0.4513402765521676  0.4628104305754717
  0.6187919229022145  0.5790454406232984  0.6199949578383340
  0.4241689916955185  0.4566985386633139  0.5388558503796776
  0.5519422907902318  0.4606334578044069  0.5933405706370388
  0.5940967279381280  0.6543520474464989  0.5033203615723943
  0.4608645007938756  0.6851234632120805  0.4753843597280498
  0.3766100392100485  0.5733531540285575  0.4754853783617652
  0.4891121530392690  0.5795854628605768  0.5645611745144513
 
  0.00000000E+00  0.00000000E+00  0.00000000E+00
  0.00000000E+00  0.00000000E+00  0.00000000E+00
  0.00000000E+00  0.00000000E+00  0.00000000E+00
  0.00000000E+00  0.00000000E+00  0.00000000E+00
  0.00000000E+00  0.00000000E+00  0.00000000E+00
  0.00000000E+00  0.00000000E+00  0.00000000E+00
  0.00000000E+00  0.00000000E+00  0.00000000E+00
  0.00000000E+00  0.00000000E+00  0.00000000E+00
  0.00000000E+00  0.00000000E+00  0.00000000E+00
  0.00000000E+00  0.00000000E+00  0.00000000E+00
  0.00000000E+00  0.00000000E+00  0.00000000E+00
  0.00000000E+00  0.00000000E+00  0.00000000E+00
  0.00000000E+00  0.00000000E+00  0.00000000E+00
  0.00000000E+00  0.00000000E+00  0.00000000E+00
  0.00000000E+00  0.00000000E+00  0.00000000E+00
