Al44, -139.00168954 <s> Ag </s>
  1.00000000000000
    23.31980853972153     0.00000000000000     0.00000000000000
     0.00000000000000    23.31980853972153     0.00000000000000
     0.00000000000000     0.00000000000000    23.31980853972153
  Ag    
  44    
Direct
     0.62999232990236      0.73492376301624      0.48658289322265   
     0.68919025508623      0.63186381257230      0.46700428484458   
     0.59224136732969      0.66731875949486      0.39580251134403   
     0.60412936991484      0.63573096007286      0.56082638252432   
     0.71969270432061      0.60202039905399      0.57811934827394   
     0.61669878137142      0.49184553925310      0.29225819323361   
     0.51508879833614      0.69648399440131      0.49242958326752   
     0.56769466753805      0.60447426970508      0.67558389603003   
     0.64674050201449      0.54899648638727      0.39085952305452   
     0.54243483728311      0.58322795978983      0.33279194704001   
     0.48921559240368      0.66723681204400      0.60406435679499   
     0.42480527856916      0.61348178969999      0.52157697139317   
     0.64879445647998      0.52985114511280      0.50980810917706   
     0.54803728891390      0.57798176694873      0.46575984429089   
     0.49837973798725      0.48142194991772      0.27895753737994   
     0.46567520105175      0.64136109899491      0.72073989824857   
     0.43104895661337      0.52339949987741      0.36183674949911   
     0.40269930999638      0.58718284283411      0.63489587474489   
     0.64023079757800      0.52769190383019      0.62900825875939   
     0.51860163506472      0.55127492812726      0.57933770364748   
     0.54384990408493      0.47970217280617      0.39426104119626   
     0.45548484459209      0.63148269563378      0.40982374343786   
     0.65115716132021      0.42416963849852      0.56668930671374   
     0.64968757890370      0.43533742304029      0.43301825851640   
     0.47884943444463      0.52372875180812      0.70014749439533   
     0.55226396196242      0.45971795753630      0.51167057275173   
     0.35084701759517      0.56290029527259      0.44112528926514   
     0.56467395455257      0.38538177593365      0.31594804870282   
     0.45050850986459      0.50684541031216      0.47971857698342   
     0.66041176775119      0.32832448805120      0.49033964952451   
     0.54815094369595      0.44149778593586      0.63788432126478   
     0.34175021234769      0.52580999828458      0.55731819592257   
     0.55305739957954      0.36266495741962      0.43339078062476   
     0.43761594441059      0.46487007257370      0.59800858145190   
     0.45614744822261      0.40306243219489      0.36831739899403   
     0.35817320056148      0.48845080101521      0.68624397255086   
     0.45686140857240      0.41042310554691      0.71458219456431   
     0.36462952658943      0.43942711730865      0.42996353865273   
     0.55739532992828      0.34282312554155      0.54996923886764   
     0.45278896830637      0.38834221560360      0.49665586785167   
     0.26546977655290      0.47771023384785      0.48030770571442   
     0.34336891926848      0.40602386720214      0.54886023766163   
     0.46087879799693      0.34643748640074      0.61266545274828   
     0.35665868768381      0.37126377761924      0.66296283191213   
