Ti37, -245.28951317 <s> Ag </s>
  1.00000000000000
    22.44202300048195     0.00000000000000     0.00000000000000
     0.00000000000000    22.44202300048195     0.00000000000000
     0.00000000000000     0.00000000000000    22.44202300048195
  Ag    
  37    
Direct
     0.69690178272576      0.43819665690274      0.57019665824106   
     0.61332742098539      0.35889068578049      0.51508921476547   
     0.63276557015185      0.36755455370090      0.63573398874462   
     0.64622315968590      0.48302239149251      0.47335119066996   
     0.65111381520991      0.48021196931475      0.67034831596286   
     0.63242566344902      0.51141368184797      0.33870083812792   
     0.65291843409469      0.55359990651231      0.57370675636945   
     0.56888285121182      0.45597237349314      0.57556165611253   
     0.55850419438757      0.43014412917605      0.42614751775871   
     0.52433385322639      0.34414632834347      0.60328943426725   
     0.64429468030913      0.59232661733486      0.43509067893709   
     0.53030005446342      0.45278174476869      0.30573110882804   
     0.48762548532473      0.34139352296425      0.48576289989655   
     0.54983460277056      0.43057653124775      0.69745558200762   
     0.59704397209927      0.63352044621405      0.33526413044426   
     0.53987117934155      0.56198102429724      0.26956785339560   
     0.54795014515655      0.56368795678339      0.51488616650911   
     0.55327167653391      0.55111678121734      0.65133218375087   
     0.55069529865346      0.66153819700335      0.44269665839391   
     0.53400597113184      0.54574316272568      0.39184066054808   
     0.44271717613424      0.43165079459875      0.39310100524402   
     0.43572477256655      0.52836768583551      0.31474586065126   
     0.47326656644423      0.63921695842735      0.34328691172188   
     0.44578898747766      0.55880753379023      0.57677034829279   
     0.45087424319887      0.46166946922884      0.64724580572904   
     0.36822152878304      0.37476313936306      0.47795820753245   
     0.41219541567407      0.36393186554635      0.58384369110198   
     0.45321429198303      0.45720168932677      0.50768484072743   
     0.51287196615980      0.65575063188632      0.59817010005275   
     0.44898609666482      0.58985837045521      0.69087637774985   
     0.34227588276295      0.48102382093274      0.44603510388275   
     0.44014397318487      0.65489790629531      0.49807365424409   
     0.42275633232264      0.56215868249964      0.43311117136814   
     0.34873490605788      0.55014409436660      0.64636160549267   
     0.33991429230765      0.45955505162660      0.56481780012206   
     0.38891008586175      0.65673700468731      0.60909978926817   
     0.33747786664662      0.57862984667070      0.52611605112192   
