Co10, -950.0 <s> Ni </s>                
   1.00000000000000     
    17.8636209999999984    0.0000000000000000    0.0000000000000000
     0.0000000000000000   17.8636209999999984    0.0000000000000000
     0.0000000000000000    0.0000000000000000   17.8636209999999984
   Ni
    10
Direct
  0.6303845983669235  0.4965080279967131  0.5566100329918209
  0.6142094645731351  0.5856221758201610  0.4618704842885848
  0.5879930549639586  0.4593490388162581  0.4385427510859065
  0.5364329660430656  0.5856663304487223  0.5675587819307746
  0.5087631327439089  0.4543010766149163  0.5473201230321961
  0.4123254734545921  0.5401482885376130  0.5620516304940317
  0.4914190686814594  0.5454317496992884  0.4522964465469772
  0.4632328286448666  0.4147827373170823  0.4318733282190817
  0.3693028263154051  0.5042206295613266  0.4441822284552901
  0.3859365862126918  0.4139699451879191  0.5376941929553503
 
  0.00000000E+00  0.00000000E+00  0.00000000E+00
  0.00000000E+00  0.00000000E+00  0.00000000E+00
  0.00000000E+00  0.00000000E+00  0.00000000E+00
  0.00000000E+00  0.00000000E+00  0.00000000E+00
  0.00000000E+00  0.00000000E+00  0.00000000E+00
  0.00000000E+00  0.00000000E+00  0.00000000E+00
  0.00000000E+00  0.00000000E+00  0.00000000E+00
  0.00000000E+00  0.00000000E+00  0.00000000E+00
  0.00000000E+00  0.00000000E+00  0.00000000E+00
  0.00000000E+00  0.00000000E+00  0.00000000E+00
