Ni10 https://doi.org/10.1039/C7CP02240A <s> Ni </s>
  1.00000000000000
    16.51791100000000     0.00000000000000     0.00000000000000
     0.00000000000000    16.51791100000000     0.00000000000000
     0.00000000000000     0.00000000000000    16.51791100000000
  Ni    
  10    
Cartesian
    -1.22307700000000     -0.96730500000000     -0.68469700000000   
    -0.16872600000000     -0.83223000000000      1.47634100000000   
     1.17346000000000     -1.12792400000000     -0.50136800000000   
    -0.20585800000000     -2.75998300000000      0.27287600000000   
     2.41802500000000      0.63274100000000     -1.21939900000000   
    -2.09988600000000      0.93559400000000     -1.56497500000000   
     0.16879100000000      0.83227800000000     -1.47639000000000   
    -1.17332100000000      1.12860700000000      0.50164200000000   
     1.22313400000000      0.96785400000000      0.68515000000000   
    -0.11254300000000      1.19036700000000      2.51081900000000   
