Cu13, -933.0 <s> Cu </s>                
   1.00000000000000     
    18.7007979999999989    0.0000000000000000    0.0000000000000000
     0.0000000000000000   18.7007979999999989    0.0000000000000000
     0.0000000000000000    0.0000000000000000   18.7007979999999989
   Cu
    13
Direct
  0.4570054176297731  0.3698587745169633  0.4250929826630880
  0.3538462904096420  0.5071324887188879  0.5547298569825685
  0.5127716474986812  0.4582251105417683  0.3452721108478869
  0.5463432095250695  0.6000055308211572  0.6290995175713903
  0.5561419892349022  0.4768809989161511  0.5965883381019381
  0.4441023318897876  0.5137323675048080  0.6501146100824116
  0.6281956523994268  0.5135090615261007  0.3895292061868219
  0.5155647368630980  0.5697409399732223  0.4110766823961214
  0.6021555336836428  0.5664222045909071  0.5109117268685495
  0.5473857318815973  0.4528671038941425  0.4687750223279181
  0.4712893000608886  0.5592636865426428  0.5332134489661868
  0.4485023045540615  0.4226131543033205  0.5483510917555492
  0.4166958543694221  0.4897485781499427  0.4372454052495485
 
  0.00000000E+00  0.00000000E+00  0.00000000E+00
  0.00000000E+00  0.00000000E+00  0.00000000E+00
  0.00000000E+00  0.00000000E+00  0.00000000E+00
  0.00000000E+00  0.00000000E+00  0.00000000E+00
  0.00000000E+00  0.00000000E+00  0.00000000E+00
  0.00000000E+00  0.00000000E+00  0.00000000E+00
  0.00000000E+00  0.00000000E+00  0.00000000E+00
  0.00000000E+00  0.00000000E+00  0.00000000E+00
  0.00000000E+00  0.00000000E+00  0.00000000E+00
  0.00000000E+00  0.00000000E+00  0.00000000E+00
  0.00000000E+00  0.00000000E+00  0.00000000E+00
  0.00000000E+00  0.00000000E+00  0.00000000E+00
  0.00000000E+00  0.00000000E+00  0.00000000E+00
