Ti51, -342.54025485 <s> Ag </s>         
   1.00000000000000     
    24.2795806470624491    0.0000000000000000    0.0000000000000000
     0.0000000000000000   24.2795806470624491    0.0000000000000000
     0.0000000000000000    0.0000000000000000   24.2795806470624491
   Ag
    51
Direct
  0.3647703851471795  0.4596664530540476  0.3224838702609551
  0.4359852505631674  0.5422669049728576  0.2782090566650441
  0.4824418762769684  0.4396704311320294  0.3147902843166299
  0.3486956001107556  0.5752003746656762  0.3518382538329171
  0.3319839138382482  0.4799849604400488  0.4318532516557645
  0.4218788145143622  0.4043877659470578  0.4092935517224582
  0.4631460396252647  0.6295482031580570  0.3503083051849999
  0.4376377650981749  0.5183908908083975  0.3930440897623736
  0.2888621461616787  0.5845589152030982  0.4487102072789447
  0.5403569023446680  0.5454860147936705  0.3304471638153446
  0.3849480768858817  0.6569916587085021  0.4291900311762375
  0.5378292128042292  0.3554155379575022  0.3845301689472693
  0.4834611087884325  0.3559330672001584  0.4889656033616933
  0.5952381095249984  0.3131378022294943  0.4783876022105474
  0.4700130365334252  0.4747788149059145  0.5027858556395475
  0.5988358881550183  0.4423702767654792  0.3219238131772835
  0.3264806340502573  0.6540249027950091  0.5304004813464804
  0.3752013069745392  0.4164495024791438  0.5214737396911505
  0.4987995422579896  0.5888147982952697  0.4576493315953175
  0.4944482932781957  0.7030813565204771  0.4363325335653669
  0.5389432956398654  0.4643538868721107  0.4172632885539219
  0.5806863887153971  0.6363331982281170  0.3881349120376840
  0.3025896293355655  0.5101164608916121  0.5438114439830829
  0.6316720577329560  0.5296099791228872  0.4012997468614383
  0.3922800497992631  0.5603543876049282  0.4978288645970569
  0.6397325546818929  0.4093458104672335  0.4248609389015606
  0.4430527112547488  0.6640202141543622  0.5331323088230854
  0.5776087854664622  0.5255047341737222  0.5111129915115904
  0.3780178700787189  0.5900790906058618  0.6117019190964016
  0.6043770316928450  0.7148361233988254  0.4691791511820691
  0.6517467610591733  0.6113041750908670  0.4809905763958229
  0.3807098471649796  0.4759085165046938  0.6222371933423474
  0.5794987549007153  0.4123427693498808  0.5307464547347913
  0.4689568382844468  0.4052157616370297  0.5950719644571956
  0.4862760701290366  0.5603896781639645  0.5757057063442512
  0.6854703263245624  0.4930129873008889  0.4987224042104423
  0.5364982918239598  0.3100696012353517  0.5803846643414704
  0.4742957162168563  0.6530305215627530  0.6424967072479428
  0.6921057282803036  0.3752744987461759  0.5207099303484922
  0.5617934555143784  0.6446104405294856  0.5520020122647691
  0.6536503137098086  0.5657902461920021  0.5887656634377157
  0.4577521009572490  0.5406445087344028  0.6852861444496152
  0.4453184673518298  0.4280422970343639  0.7052555607557688
  0.5634632200640038  0.4803417839340668  0.6208107562678142
  0.6374296542046852  0.3461946176915968  0.6156730606137569
  0.5646937810211959  0.5875095554248638  0.6644737988492534
  0.5425147413312463  0.3739557371659352  0.6781218567066015
  0.6842787527919699  0.4540200129823850  0.6071686149231670
  0.6544719989338408  0.5245094062328181  0.6953759049831166
  0.5492446808824836  0.4810040211191821  0.7322859418893544
  0.6446665434306743  0.4127662568008616  0.7085415918604027
 
  0.00000000E+00  0.00000000E+00  0.00000000E+00
  0.00000000E+00  0.00000000E+00  0.00000000E+00
  0.00000000E+00  0.00000000E+00  0.00000000E+00
  0.00000000E+00  0.00000000E+00  0.00000000E+00
  0.00000000E+00  0.00000000E+00  0.00000000E+00
  0.00000000E+00  0.00000000E+00  0.00000000E+00
  0.00000000E+00  0.00000000E+00  0.00000000E+00
  0.00000000E+00  0.00000000E+00  0.00000000E+00
  0.00000000E+00  0.00000000E+00  0.00000000E+00
  0.00000000E+00  0.00000000E+00  0.00000000E+00
  0.00000000E+00  0.00000000E+00  0.00000000E+00
  0.00000000E+00  0.00000000E+00  0.00000000E+00
  0.00000000E+00  0.00000000E+00  0.00000000E+00
  0.00000000E+00  0.00000000E+00  0.00000000E+00
  0.00000000E+00  0.00000000E+00  0.00000000E+00
  0.00000000E+00  0.00000000E+00  0.00000000E+00
  0.00000000E+00  0.00000000E+00  0.00000000E+00
  0.00000000E+00  0.00000000E+00  0.00000000E+00
  0.00000000E+00  0.00000000E+00  0.00000000E+00
  0.00000000E+00  0.00000000E+00  0.00000000E+00
  0.00000000E+00  0.00000000E+00  0.00000000E+00
  0.00000000E+00  0.00000000E+00  0.00000000E+00
  0.00000000E+00  0.00000000E+00  0.00000000E+00
  0.00000000E+00  0.00000000E+00  0.00000000E+00
  0.00000000E+00  0.00000000E+00  0.00000000E+00
  0.00000000E+00  0.00000000E+00  0.00000000E+00
  0.00000000E+00  0.00000000E+00  0.00000000E+00
  0.00000000E+00  0.00000000E+00  0.00000000E+00
  0.00000000E+00  0.00000000E+00  0.00000000E+00
  0.00000000E+00  0.00000000E+00  0.00000000E+00
  0.00000000E+00  0.00000000E+00  0.00000000E+00
  0.00000000E+00  0.00000000E+00  0.00000000E+00
  0.00000000E+00  0.00000000E+00  0.00000000E+00
  0.00000000E+00  0.00000000E+00  0.00000000E+00
  0.00000000E+00  0.00000000E+00  0.00000000E+00
  0.00000000E+00  0.00000000E+00  0.00000000E+00
  0.00000000E+00  0.00000000E+00  0.00000000E+00
  0.00000000E+00  0.00000000E+00  0.00000000E+00
  0.00000000E+00  0.00000000E+00  0.00000000E+00
  0.00000000E+00  0.00000000E+00  0.00000000E+00
  0.00000000E+00  0.00000000E+00  0.00000000E+00
  0.00000000E+00  0.00000000E+00  0.00000000E+00
  0.00000000E+00  0.00000000E+00  0.00000000E+00
  0.00000000E+00  0.00000000E+00  0.00000000E+00
  0.00000000E+00  0.00000000E+00  0.00000000E+00
  0.00000000E+00  0.00000000E+00  0.00000000E+00
  0.00000000E+00  0.00000000E+00  0.00000000E+00
  0.00000000E+00  0.00000000E+00  0.00000000E+00
  0.00000000E+00  0.00000000E+00  0.00000000E+00
  0.00000000E+00  0.00000000E+00  0.00000000E+00
  0.00000000E+00  0.00000000E+00  0.00000000E+00
