Ti51, -342.54025485 <s> Ag </s>
  1.00000000000000
    24.27958064706245     0.00000000000000     0.00000000000000
     0.00000000000000    24.27958064706245     0.00000000000000
     0.00000000000000     0.00000000000000    24.27958064706245
  Ag    
  51    
Direct
     0.39192326395280      0.45970056250223      0.31715595924474   
     0.44779714064470      0.53770563162446      0.26591490968375   
     0.49943371512754      0.44006161046541      0.29547468284756   
     0.36617911040603      0.55777828205713      0.34195251192395   
     0.38528325683050      0.48067776706980      0.43023043922180   
     0.44151430018830      0.39346549566860      0.37935998441667   
     0.45848889325780      0.62812798652517      0.33044498995201   
     0.46840154505284      0.52605568791636      0.37310745230815   
     0.30517628419389      0.53816451784468      0.47270577277273   
     0.54874097509815      0.55476983030546      0.30443187792739   
     0.39075504041232      0.60573889249040      0.43159674732940   
     0.54850155772577      0.36309064213203      0.37204302443192   
     0.47303718132912      0.37647388904263      0.48635463607356   
     0.58476713933506      0.32473628401592      0.48380686409598   
     0.47211254556262      0.48348421284061      0.50376457347500   
     0.59881423990340      0.45661288334594      0.32919634445741   
     0.32433132193949      0.63661525243732      0.52151448943429   
     0.35985986965564      0.45228428382090      0.53618083243889   
     0.50768962832240      0.59114425210058      0.46232311694514   
     0.46142238587024      0.68931154761876      0.42226174665335   
     0.53419094187575      0.45275836405381      0.42128001792586   
     0.56022178964704      0.64493856926980      0.37833995097810   
     0.29946656347325      0.54226223111952      0.57937973260493   
     0.60968985059696      0.53879747432947      0.40361617073479   
     0.39670103406536      0.55917843531456      0.53419420996888   
     0.63899098627728      0.41673562709921      0.42498641764299   
     0.44201838942372      0.66086389498380      0.53088322955100   
     0.58332699532195      0.51996393504731      0.51684195386166   
     0.37097557798244      0.61711708261628      0.62730685844286   
     0.54326560910888      0.69543276911838      0.48278516130264   
     0.62048347120722      0.61573748231135      0.47570849777222   
     0.37668288191175      0.50083473587207      0.64286160989837   
     0.57609100335926      0.41583939265338      0.53099375239055   
     0.45956581025257      0.42110966542721      0.59977275190385   
     0.48082086217418      0.54260359538042      0.60344725251550   
     0.68486724845582      0.48619495650710      0.49843644601287   
     0.51715710702243      0.32795878979702      0.57370659265448   
     0.47853494886246      0.65078083842042      0.63708984614285   
     0.68199958686855      0.37497184407856      0.51391074545629   
     0.55645789082963      0.61735173772339      0.56377516611263   
     0.65625070856112      0.55643454862782      0.59355341470415   
     0.44136024444291      0.57459250217436      0.70314068905624   
     0.47932269001502      0.47277344231337      0.69354747246071   
     0.57463524064088      0.47131577119030      0.62816875094844   
     0.62310042156886      0.34019478150065      0.59851337080352   
     0.55623061623631      0.56859798307712      0.67729611555386   
     0.53854298528819      0.37354218373140      0.67279270734941   
     0.68898445841810      0.44591261370895      0.60002445796206   
     0.66079867705375      0.50929132464557      0.68816760379347   
     0.57497069756605      0.46888774418411      0.73838960427095   
     0.64487563839228      0.40167608288404      0.68903776276852   
