Ag13, -901.0 <s> Pd </s>                
   1.00000000000000     
    19.9232079999999989    0.0000000000000000    0.0000000000000000
     0.0000000000000000   19.9232079999999989    0.0000000000000000
     0.0000000000000000    0.0000000000000000   19.9232079999999989
   Pd
    13
Direct
  0.4912462420974536  0.3724351326813090  0.6113071608408336
  0.5907741578653941  0.5903620044812690  0.5000000000000000
  0.5530722818120513  0.4810364557103537  0.5678886806696647
  0.5530722818120513  0.4810364557103537  0.4321113193303350
  0.4912462420974536  0.3724351326813090  0.3886928391591663
  0.4377661810024701  0.4206381284723930  0.5000000000000000
  0.4494054583225757  0.5543065174891867  0.5000000000000000
  0.4278525047920457  0.4906872928811743  0.3845379765844391
  0.4278525047920457  0.4906872928811743  0.6154620234155611
  0.5093821695432230  0.6001767178436686  0.3918847890344448
  0.4940675159892317  0.6800598826830639  0.5000000000000000
  0.5648802878803394  0.3659622661906282  0.5000000000000000
  0.5093821695432230  0.6001767178436686  0.6081152109655554
 
  0.00000000E+00  0.00000000E+00  0.00000000E+00
  0.00000000E+00  0.00000000E+00  0.00000000E+00
  0.00000000E+00  0.00000000E+00  0.00000000E+00
  0.00000000E+00  0.00000000E+00  0.00000000E+00
  0.00000000E+00  0.00000000E+00  0.00000000E+00
  0.00000000E+00  0.00000000E+00  0.00000000E+00
  0.00000000E+00  0.00000000E+00  0.00000000E+00
  0.00000000E+00  0.00000000E+00  0.00000000E+00
  0.00000000E+00  0.00000000E+00  0.00000000E+00
  0.00000000E+00  0.00000000E+00  0.00000000E+00
  0.00000000E+00  0.00000000E+00  0.00000000E+00
  0.00000000E+00  0.00000000E+00  0.00000000E+00
  0.00000000E+00  0.00000000E+00  0.00000000E+00
