Ag12, -912.0 <s> Cu </s>                
   1.00000000000000     
    21.3893519999999988    0.0000000000000000    0.0000000000000000
     0.0000000000000000   21.3893519999999988    0.0000000000000000
     0.0000000000000000    0.0000000000000000   21.3893519999999988
   Cu
    12
Direct
  0.5554841250449938  0.6621056814700261  0.5000000000000000
  0.4445158749550062  0.6621056814700261  0.5000000000000000
  0.5000000000000000  0.5650875988494143  0.5000000000000000
  0.3880871782437799  0.5648403678728710  0.5000000000000000
  0.4438217852153619  0.4674922460878451  0.5000000000000000
  0.3324218283747212  0.4671258438271370  0.5000000000000000
  0.3879423308878573  0.3707320449199798  0.5000000000000000
  0.5000000000000000  0.3703200268175553  0.5000000000000000
  0.6120576691121427  0.3707320449199798  0.5000000000000000
  0.6675781716252790  0.4671258438271370  0.5000000000000000
  0.5561782147846382  0.4674922460878451  0.5000000000000000
  0.6119128217562200  0.5648403678728710  0.5000000000000000
 
  0.00000000E+00  0.00000000E+00  0.00000000E+00
  0.00000000E+00  0.00000000E+00  0.00000000E+00
  0.00000000E+00  0.00000000E+00  0.00000000E+00
  0.00000000E+00  0.00000000E+00  0.00000000E+00
  0.00000000E+00  0.00000000E+00  0.00000000E+00
  0.00000000E+00  0.00000000E+00  0.00000000E+00
  0.00000000E+00  0.00000000E+00  0.00000000E+00
  0.00000000E+00  0.00000000E+00  0.00000000E+00
  0.00000000E+00  0.00000000E+00  0.00000000E+00
  0.00000000E+00  0.00000000E+00  0.00000000E+00
  0.00000000E+00  0.00000000E+00  0.00000000E+00
  0.00000000E+00  0.00000000E+00  0.00000000E+00
