Pt11, -46.89575995 <s> Cu </s>          
   1.00000000000000     
    18.2913927135641501    0.0000000000000000    0.0000000000000000
     0.0000000000000000   18.2913927135641501    0.0000000000000000
     0.0000000000000000    0.0000000000000000   18.2913927135641501
   Cu
    11
Direct
  0.4213375029174550  0.5199926048311216  0.3549308282736550
  0.4832623515660930  0.5448617879894444  0.4719412728441463
  0.5523173333010729  0.5087485085301363  0.3662786240388533
  0.2976504747940570  0.4899225641621698  0.3493524247543529
  0.4718241066023267  0.4152849157376276  0.4219936258796279
  0.5807036455163035  0.4498777429071951  0.4882437829049908
  0.5198152834628088  0.3361283894528446  0.5137375981192166
  0.5545617143809788  0.5343277516894893  0.5839397909988258
  0.3608843401108119  0.4745445264524862  0.4634896607860156
  0.4581710203543522  0.4486074209377283  0.5551280653587085
  0.3865973260780576  0.3493830461664825  0.5110607693593853
 
  0.00000000E+00  0.00000000E+00  0.00000000E+00
  0.00000000E+00  0.00000000E+00  0.00000000E+00
  0.00000000E+00  0.00000000E+00  0.00000000E+00
  0.00000000E+00  0.00000000E+00  0.00000000E+00
  0.00000000E+00  0.00000000E+00  0.00000000E+00
  0.00000000E+00  0.00000000E+00  0.00000000E+00
  0.00000000E+00  0.00000000E+00  0.00000000E+00
  0.00000000E+00  0.00000000E+00  0.00000000E+00
  0.00000000E+00  0.00000000E+00  0.00000000E+00
  0.00000000E+00  0.00000000E+00  0.00000000E+00
  0.00000000E+00  0.00000000E+00  0.00000000E+00
