Pt12, -52.08894605 <s> Cu </s>
  1.00000000000000
    18.88980273498831     0.00000000000000     0.00000000000000
     0.00000000000000    18.88980273498831     0.00000000000000
     0.00000000000000     0.00000000000000    18.88980273498831
  Cu    
  12    
Direct
     0.55435016962762      0.51046471090908      0.41022835664772   
     0.43368881413830      0.37377262634494      0.39362528493914   
     0.58976965738696      0.58028237219190      0.50360054361741   
     0.46963479180894      0.57084727717953      0.48536086116132   
     0.52233380619430      0.38556890237295      0.60802625745803   
     0.35156420040623      0.31753359016744      0.46407297926629   
     0.35177008998992      0.56017599404693      0.45984276447840   
     0.51020451896711      0.43708434415984      0.32388483993008   
     0.44671212022156      0.38353890007869      0.51592269517555   
     0.34949323499223      0.43923708341553      0.46549636201057   
     0.52956078788253      0.47125101772703      0.52531582596244   
     0.42567223060683      0.50467195392280      0.37997703753763   
