Al10, -26.28432637 <s> Ni </s>          
   1.00000000000000     
    20.1515975418639606    0.0000000000000000    0.0000000000000000
     0.0000000000000000   20.1515975418639606    0.0000000000000000
     0.0000000000000000    0.0000000000000000   20.1515975418639606
   Ni
    10
Direct
  0.4283338345619317  0.4055909701397107  0.5044772011924038
  0.4897488308438362  0.4987356587999840  0.5260206789267347
  0.4183251864762521  0.4574191015003459  0.6070328750966673
  0.4451167420692567  0.3574901089554414  0.3983252768752132
  0.5173086472518089  0.4409110621552961  0.4285257672831246
  0.5346986143560278  0.3818849597131255  0.3309777940951334
  0.3636256585536009  0.4446226123075563  0.4162868309520897
  0.3732128062087281  0.5064424139027477  0.5152681076665748
  0.4413545843675584  0.5272051468389365  0.4209529109066020
  0.4455864811306497  0.4523295233826338  0.3328011143704641
 
  0.00000000E+00  0.00000000E+00  0.00000000E+00
  0.00000000E+00  0.00000000E+00  0.00000000E+00
  0.00000000E+00  0.00000000E+00  0.00000000E+00
  0.00000000E+00  0.00000000E+00  0.00000000E+00
  0.00000000E+00  0.00000000E+00  0.00000000E+00
  0.00000000E+00  0.00000000E+00  0.00000000E+00
  0.00000000E+00  0.00000000E+00  0.00000000E+00
  0.00000000E+00  0.00000000E+00  0.00000000E+00
  0.00000000E+00  0.00000000E+00  0.00000000E+00
  0.00000000E+00  0.00000000E+00  0.00000000E+00
