Al10, -26.28432637 <s> Ni </s>          
   1.00000000000000     
    20.1515975418639606    0.0000000000000000    0.0000000000000000
     0.0000000000000000   20.1515975418639606    0.0000000000000000
     0.0000000000000000    0.0000000000000000   20.1515975418639606
   Ni
    10
Direct
  0.4300672388084746  0.3926093402148209  0.5195899694856383
  0.4972337964895735  0.5164810621269665  0.5494174253587508
  0.4132022027647982  0.4651211055835628  0.6425281726408795
  0.4417885108733156  0.3341925059543348  0.3790557998009362
  0.5336466633322446  0.4368303793370714  0.4235310295668509
  0.5474567106683982  0.3630895035698276  0.3003006424793310
  0.3501582891352988  0.4397350930134005  0.4081391704203827
  0.3542632525488953  0.5161842205772743  0.5280311666232698
  0.4410795292700923  0.5479943984835314  0.4213002863926003
  0.4484151919285526  0.4603939488349939  0.3087748945963671
 
  0.00000000E+00  0.00000000E+00  0.00000000E+00
  0.00000000E+00  0.00000000E+00  0.00000000E+00
  0.00000000E+00  0.00000000E+00  0.00000000E+00
  0.00000000E+00  0.00000000E+00  0.00000000E+00
  0.00000000E+00  0.00000000E+00  0.00000000E+00
  0.00000000E+00  0.00000000E+00  0.00000000E+00
  0.00000000E+00  0.00000000E+00  0.00000000E+00
  0.00000000E+00  0.00000000E+00  0.00000000E+00
  0.00000000E+00  0.00000000E+00  0.00000000E+00
  0.00000000E+00  0.00000000E+00  0.00000000E+00
