Al13, -36.95588884 <s> Pd </s>          
   1.00000000000000     
    18.2582575704654104    0.0000000000000000    0.0000000000000000
     0.0000000000000000   18.2582575704654104    0.0000000000000000
     0.0000000000000000    0.0000000000000000   18.2582575704654104
   Pd
    13
Direct
  0.6277215387724401  0.5463460281308589  0.4953557626845923
  0.5408940421866283  0.5806806840321210  0.3807871070349856
  0.6265788923772713  0.4097485197990912  0.5557201430610830
  0.5488688128735884  0.4424690713508701  0.4377002444283769
  0.5125510405723026  0.6375961294150050  0.5098157832505691
  0.5177583174963979  0.5040196138292085  0.5751874110726626
  0.4475309557452989  0.3411109881753706  0.4139279810370249
  0.3931496084579262  0.5735702847928931  0.5687720276085948
  0.4048138686170761  0.5958170539235562  0.4240106340671149
  0.4926167630863755  0.3581542245864963  0.5493283853214431
  0.4009768065502965  0.4351457721187800  0.6270237043406197
  0.4430213487737186  0.4752569743633731  0.3479914822673376
  0.4026330986795026  0.4595397222013550  0.4839164239565215
 
  0.00000000E+00  0.00000000E+00  0.00000000E+00
  0.00000000E+00  0.00000000E+00  0.00000000E+00
  0.00000000E+00  0.00000000E+00  0.00000000E+00
  0.00000000E+00  0.00000000E+00  0.00000000E+00
  0.00000000E+00  0.00000000E+00  0.00000000E+00
  0.00000000E+00  0.00000000E+00  0.00000000E+00
  0.00000000E+00  0.00000000E+00  0.00000000E+00
  0.00000000E+00  0.00000000E+00  0.00000000E+00
  0.00000000E+00  0.00000000E+00  0.00000000E+00
  0.00000000E+00  0.00000000E+00  0.00000000E+00
  0.00000000E+00  0.00000000E+00  0.00000000E+00
  0.00000000E+00  0.00000000E+00  0.00000000E+00
  0.00000000E+00  0.00000000E+00  0.00000000E+00
