Ag12, -941.0 <s> Pd </s>                
   1.00000000000000     
    19.7802579999999999    0.0000000000000000    0.0000000000000000
     0.0000000000000000   19.7802579999999999    0.0000000000000000
     0.0000000000000000    0.0000000000000000   19.7802579999999999
   Pd
    12
Direct
  0.5653121832251465  0.4526343536590539  0.5709899020827941
  0.5576017941217573  0.5873323437379646  0.5702221814212258
  0.4448426956723026  0.5111961680300865  0.5650308557776746
  0.4553784768932035  0.6343894022671641  0.5000000000000000
  0.5576017941217573  0.5873323437379646  0.4297778185787747
  0.5653121832251465  0.4526343536590539  0.4290100979172059
  0.4448426956723026  0.5111961680300865  0.4349691442223255
  0.6525360858123440  0.5225309658219677  0.5000000000000000
  0.5953126558791999  0.3462312256456056  0.5000000000000000
  0.3502902898735000  0.4390340660576499  0.5000000000000000
  0.4710719850513455  0.3869875708790503  0.5000000000000000
  0.3398971629201291  0.5685010335380062  0.5000000000000000
 
  0.00000000E+00  0.00000000E+00  0.00000000E+00
  0.00000000E+00  0.00000000E+00  0.00000000E+00
  0.00000000E+00  0.00000000E+00  0.00000000E+00
  0.00000000E+00  0.00000000E+00  0.00000000E+00
  0.00000000E+00  0.00000000E+00  0.00000000E+00
  0.00000000E+00  0.00000000E+00  0.00000000E+00
  0.00000000E+00  0.00000000E+00  0.00000000E+00
  0.00000000E+00  0.00000000E+00  0.00000000E+00
  0.00000000E+00  0.00000000E+00  0.00000000E+00
  0.00000000E+00  0.00000000E+00  0.00000000E+00
  0.00000000E+00  0.00000000E+00  0.00000000E+00
  0.00000000E+00  0.00000000E+00  0.00000000E+00
