Ba13, -15.28862854 <s> Ag </s>          
   1.00000000000000     
    21.9770720486757796    0.0000000000000000    0.0000000000000000
     0.0000000000000000   21.9770720486757796    0.0000000000000000
     0.0000000000000000    0.0000000000000000   21.9770720486757796
   Ag
    13
Direct
  0.3351171750544191  0.4144972702644588  0.3608415898524872
  0.4410623353449306  0.4530948802250514  0.3032655959777033
  0.3569994392981400  0.3146303687863272  0.4337193700961775
  0.4578859645524547  0.2470649472978820  0.3976456645027717
  0.4625664821220817  0.3769661294213467  0.4001886284185369
  0.4069423360269764  0.3191331200268069  0.3041676626230675
  0.3485199410449346  0.4066074368517056  0.2327152171283277
  0.3407688488363632  0.2194773721695599  0.3523655663058802
  0.2494162374114224  0.3180796431654864  0.3701018013461135
  0.2329020918962817  0.4108014476806075  0.2811662079430253
  0.2927861290238551  0.2937629993601698  0.2533240667533220
  0.2220236591707563  0.2049737367663415  0.3180934519051439
  0.1663481617207688  0.3063481591660893  0.2685327807996283
 
  0.00000000E+00  0.00000000E+00  0.00000000E+00
  0.00000000E+00  0.00000000E+00  0.00000000E+00
  0.00000000E+00  0.00000000E+00  0.00000000E+00
  0.00000000E+00  0.00000000E+00  0.00000000E+00
  0.00000000E+00  0.00000000E+00  0.00000000E+00
  0.00000000E+00  0.00000000E+00  0.00000000E+00
  0.00000000E+00  0.00000000E+00  0.00000000E+00
  0.00000000E+00  0.00000000E+00  0.00000000E+00
  0.00000000E+00  0.00000000E+00  0.00000000E+00
  0.00000000E+00  0.00000000E+00  0.00000000E+00
  0.00000000E+00  0.00000000E+00  0.00000000E+00
  0.00000000E+00  0.00000000E+00  0.00000000E+00
  0.00000000E+00  0.00000000E+00  0.00000000E+00
