Pd11 https://doi.org/10.1039/C7CP02240A <s> Pd </s>
  1.00000000000000
    16.84321400000000     0.00000000000000     0.00000000000000
     0.00000000000000    16.84321400000000     0.00000000000000
     0.00000000000000     0.00000000000000    16.84321400000000
  Pd    
  11    
Cartesian
    -0.90341600000000     -2.30023100000000      0.60300300000000   
    -0.96061700000000      0.38886600000000      0.81957600000000   
     1.13214300000000     -0.78190800000000     -0.32162000000000   
     0.85782800000000      1.89719300000000     -0.30713000000000   
    -2.18176700000000     -0.72246600000000     -1.24412400000000   
    -1.70891000000000      1.96620100000000     -1.14931500000000   
     0.78158800000000     -0.93349600000000      2.31905500000000   
     0.62894100000000      1.75967700000000      2.40126500000000   
    -0.09001300000000      0.35709800000000     -2.41379000000000   
    -0.21722400000000     -2.29291900000000     -1.98252500000000   
     2.66144700000000      0.66198500000000      1.27560300000000   
