Ir10, -880.0 <s> Cu </s>                
   1.00000000000000     
    17.5639859999999999    0.0000000000000000    0.0000000000000000
     0.0000000000000000   17.5639859999999999    0.0000000000000000
     0.0000000000000000    0.0000000000000000   17.5639859999999999
   Cu
    10
Direct
  0.4779494314847123  0.4024871782057144  0.4277106080969476
  0.6119542276664941  0.3750547059470208  0.4126463628491153
  0.4221401720268582  0.5225567366227596  0.4608385004761436
  0.5641808508759059  0.5066260369536039  0.4354851024588723
  0.5108764366206515  0.6221356960767502  0.4848830380643264
  0.4356426698790453  0.4254770822420586  0.5584662797259797
  0.5688716214894025  0.4079002621524599  0.5352633024010569
  0.4523142076112444  0.5555329269411510  0.5939865404243676
  0.5852944321643064  0.5388410853731211  0.5682541665646441
  0.3803483489498141  0.6433882969926913  0.5224661026922023
 
  0.00000000E+00  0.00000000E+00  0.00000000E+00
  0.00000000E+00  0.00000000E+00  0.00000000E+00
  0.00000000E+00  0.00000000E+00  0.00000000E+00
  0.00000000E+00  0.00000000E+00  0.00000000E+00
  0.00000000E+00  0.00000000E+00  0.00000000E+00
  0.00000000E+00  0.00000000E+00  0.00000000E+00
  0.00000000E+00  0.00000000E+00  0.00000000E+00
  0.00000000E+00  0.00000000E+00  0.00000000E+00
  0.00000000E+00  0.00000000E+00  0.00000000E+00
  0.00000000E+00  0.00000000E+00  0.00000000E+00
