Ir10, -880.0 <s> Cu </s>
  1.00000000000000
    17.56398600000000     0.00000000000000     0.00000000000000
     0.00000000000000    17.56398600000000     0.00000000000000
     0.00000000000000     0.00000000000000    17.56398600000000
  Cu    
  10    
Direct
     0.45085919929225      0.40056257864125      0.43615412547199   
     0.57816582283871      0.40055077245636      0.43612652452622   
     0.44968762157484      0.52783548542545      0.43734022160596   
     0.57935085535242      0.52784617480907      0.43733963661482   
     0.51452320044910      0.64322131899254      0.43595762162879   
     0.45088759795321      0.40054949611204      0.56383971691743   
     0.57815210213735      0.40052864915493      0.56384147189086   
     0.44970820262689      0.52782351969751      0.56268531666723   
     0.57935149352458      0.52783596405457      0.56267893494567   
     0.37888630301908      0.64324604816361      0.56403643348469   
