Pt5, -17.26767314 <s> Ag </s>
  1.00000000000000
    17.71969379754786     0.00000000000000     0.00000000000000
     0.00000000000000    17.71969379754786     0.00000000000000
     0.00000000000000     0.00000000000000    17.71969379754786
  Ag    
  5     
Direct
     0.66529252104691      0.51338738801666      0.36947358871353   
     0.56604182301027      0.52335320363005      0.46354300666724   
     0.44450434680222      0.46648949661664      0.52220853801860   
     0.53033579559043      0.55100578222828      0.60265734420724   
     0.38698304147875      0.53947879225185      0.63745528416955   
