Rh12, -738.0 <s> Pd </s>                
   1.00000000000000     
    17.7754839999999987    0.0000000000000000    0.0000000000000000
     0.0000000000000000   17.7754839999999987    0.0000000000000000
     0.0000000000000000    0.0000000000000000   17.7754839999999987
   Pd
    12
Direct
  0.4280140714879339  0.4281726439022813  0.3586085481435420
  0.4287256221197736  0.4285878895699696  0.5001849650181369
  0.4287649483567996  0.4282924706789745  0.6417582180684120
  0.5713874897397447  0.4283609395501492  0.3582823323720852
  0.5714260647052170  0.4287254275369818  0.4998576682401996
  0.5721182721479215  0.4284303147571279  0.6414345888485448
  0.4278954675195036  0.5715455597072895  0.3585981929162359
  0.4285790464643620  0.5712911164147385  0.5001757296453799
  0.4285938210014371  0.5716469431659603  0.6417505389474946
  0.5712661557435420  0.5717341191416119  0.3582078767126798
  0.5712802948723561  0.5714275627677248  0.4997800980710351
  0.5719487458413879  0.5717850128071837  0.6413612396616540
 
  0.00000000E+00  0.00000000E+00  0.00000000E+00
  0.00000000E+00  0.00000000E+00  0.00000000E+00
  0.00000000E+00  0.00000000E+00  0.00000000E+00
  0.00000000E+00  0.00000000E+00  0.00000000E+00
  0.00000000E+00  0.00000000E+00  0.00000000E+00
  0.00000000E+00  0.00000000E+00  0.00000000E+00
  0.00000000E+00  0.00000000E+00  0.00000000E+00
  0.00000000E+00  0.00000000E+00  0.00000000E+00
  0.00000000E+00  0.00000000E+00  0.00000000E+00
  0.00000000E+00  0.00000000E+00  0.00000000E+00
  0.00000000E+00  0.00000000E+00  0.00000000E+00
  0.00000000E+00  0.00000000E+00  0.00000000E+00
