Pt55, -270.18667688 <s> Ag </s>         
   1.00000000000000     
    27.2466487722582507    0.0000000000000000    0.0000000000000000
     0.0000000000000000   27.2466487722582507    0.0000000000000000
     0.0000000000000000    0.0000000000000000   27.2466487722582507
   Ag
    55
Direct
  0.3993824556541118  0.3869196516069983  0.5007178870024138
  0.5084419124296260  0.2694388210678474  0.6200220090811784
  0.5756076823866255  0.3900343713742568  0.4388697862373896
  0.6398653987811361  0.7734592951071344  0.6369904701053227
  0.5126989860597305  0.5294407732035009  0.5628562969215001
  0.4652562950952528  0.5818278219092223  0.6440445073983015
  0.5822869416056149  0.6022865720119324  0.6064299623998896
  0.5399396354235211  0.6153224075410789  0.7039680266385242
  0.6290971698061246  0.3235041111909317  0.5010307503988294
  0.4438627786458246  0.6246657349948797  0.5529456238017254
  0.6802870188335389  0.4961363177040533  0.5078162842203605
  0.4919699601985699  0.6256999072174689  0.3779558110346137
  0.5163696909381129  0.4276672694324775  0.7060901973596312
  0.7633256941334866  0.6407522698992457  0.5449633908410619
  0.3405566806119029  0.4767058854965394  0.5095060458501149
  0.5456659984906714  0.6496416844776444  0.5216535415474207
  0.5656126572447087  0.5586363518280859  0.3972052622180346
  0.4404467376480282  0.4857717958749380  0.4986729838487234
  0.6777454398672312  0.5905584335443950  0.5607304972753638
  0.6113345350110796  0.4225501239804810  0.5299253236198980
  0.5605855347161471  0.3415153796477516  0.5740749029638839
  0.4328385518446997  0.6627213645310523  0.4581775043305200
  0.7293035931022928  0.4910950757120970  0.4190300979211991
  0.5484551581125832  0.4370965680627877  0.6091656376134513
  0.3768940561695919  0.4902312001502685  0.4133755726973134
  0.5045852816620208  0.6737063254392829  0.6203076948130414
  0.4701276785016658  0.3719599501634260  0.6257998984126709
  0.5032421384158525  0.4056644564930430  0.5205632535742848
  0.5550566989737377  0.5205644598363781  0.6656985361501497
  0.4643314120659955  0.3134484531960958  0.5391694323685819
  0.4821340373701311  0.5290776801394725  0.7330833372404354
  0.5994124906565292  0.6871631212122651  0.6626182157171008
  0.5389270954785985  0.4560159151511317  0.3666829389633894
  0.7368723451414922  0.5745225318754583  0.4774901462774646
  0.5944877267076829  0.2496112307705934  0.5630517465915692
  0.6809675031016061  0.4029667623793501  0.4561890616594542
  0.3844184944600842  0.5713567569994794  0.4820491337836600
  0.5386383907640107  0.4854158703777727  0.4679080345343672
  0.4223420868211609  0.6965721696244102  0.3618265914412663
  0.3919079933211386  0.5977581645828226  0.3843766119537326
  0.4569908630577636  0.4785149637324227  0.6442484989714613
  0.4642117913503089  0.4152908034220675  0.4258728473937100
  0.4345362566956279  0.4451355133894283  0.3354021522543978
  0.4935829758622284  0.5782572883276088  0.4715836392941217
  0.5716494006510243  0.7357291767217033  0.5747561236321673
  0.6186226041490354  0.5089007355092218  0.5863030371133439
  0.5987613784739377  0.5647338606682696  0.4992926399448946
  0.4790305176567536  0.7239575544819348  0.5298949993893542
  0.4669643797935417  0.5257835117026856  0.3868264030698028
  0.4505383433735458  0.7905306199877704  0.3443506376803233
  0.4645777729315844  0.7563057812782777  0.4358557984825649
  0.6279347961360290  0.4817915205867826  0.4190468894732190
  0.3855175533742432  0.4330103908380117  0.5912866564083620
  0.3990160436318972  0.5352192095789772  0.5795420649565894
  0.3789769132442624  0.3335495606004645  0.5888981317615735
 
  0.00000000E+00  0.00000000E+00  0.00000000E+00
  0.00000000E+00  0.00000000E+00  0.00000000E+00
  0.00000000E+00  0.00000000E+00  0.00000000E+00
  0.00000000E+00  0.00000000E+00  0.00000000E+00
  0.00000000E+00  0.00000000E+00  0.00000000E+00
  0.00000000E+00  0.00000000E+00  0.00000000E+00
  0.00000000E+00  0.00000000E+00  0.00000000E+00
  0.00000000E+00  0.00000000E+00  0.00000000E+00
  0.00000000E+00  0.00000000E+00  0.00000000E+00
  0.00000000E+00  0.00000000E+00  0.00000000E+00
  0.00000000E+00  0.00000000E+00  0.00000000E+00
  0.00000000E+00  0.00000000E+00  0.00000000E+00
  0.00000000E+00  0.00000000E+00  0.00000000E+00
  0.00000000E+00  0.00000000E+00  0.00000000E+00
  0.00000000E+00  0.00000000E+00  0.00000000E+00
  0.00000000E+00  0.00000000E+00  0.00000000E+00
  0.00000000E+00  0.00000000E+00  0.00000000E+00
  0.00000000E+00  0.00000000E+00  0.00000000E+00
  0.00000000E+00  0.00000000E+00  0.00000000E+00
  0.00000000E+00  0.00000000E+00  0.00000000E+00
  0.00000000E+00  0.00000000E+00  0.00000000E+00
  0.00000000E+00  0.00000000E+00  0.00000000E+00
  0.00000000E+00  0.00000000E+00  0.00000000E+00
  0.00000000E+00  0.00000000E+00  0.00000000E+00
  0.00000000E+00  0.00000000E+00  0.00000000E+00
  0.00000000E+00  0.00000000E+00  0.00000000E+00
  0.00000000E+00  0.00000000E+00  0.00000000E+00
  0.00000000E+00  0.00000000E+00  0.00000000E+00
  0.00000000E+00  0.00000000E+00  0.00000000E+00
  0.00000000E+00  0.00000000E+00  0.00000000E+00
  0.00000000E+00  0.00000000E+00  0.00000000E+00
  0.00000000E+00  0.00000000E+00  0.00000000E+00
  0.00000000E+00  0.00000000E+00  0.00000000E+00
  0.00000000E+00  0.00000000E+00  0.00000000E+00
  0.00000000E+00  0.00000000E+00  0.00000000E+00
  0.00000000E+00  0.00000000E+00  0.00000000E+00
  0.00000000E+00  0.00000000E+00  0.00000000E+00
  0.00000000E+00  0.00000000E+00  0.00000000E+00
  0.00000000E+00  0.00000000E+00  0.00000000E+00
  0.00000000E+00  0.00000000E+00  0.00000000E+00
  0.00000000E+00  0.00000000E+00  0.00000000E+00
  0.00000000E+00  0.00000000E+00  0.00000000E+00
  0.00000000E+00  0.00000000E+00  0.00000000E+00
  0.00000000E+00  0.00000000E+00  0.00000000E+00
  0.00000000E+00  0.00000000E+00  0.00000000E+00
  0.00000000E+00  0.00000000E+00  0.00000000E+00
  0.00000000E+00  0.00000000E+00  0.00000000E+00
  0.00000000E+00  0.00000000E+00  0.00000000E+00
  0.00000000E+00  0.00000000E+00  0.00000000E+00
  0.00000000E+00  0.00000000E+00  0.00000000E+00
  0.00000000E+00  0.00000000E+00  0.00000000E+00
  0.00000000E+00  0.00000000E+00  0.00000000E+00
  0.00000000E+00  0.00000000E+00  0.00000000E+00
  0.00000000E+00  0.00000000E+00  0.00000000E+00
  0.00000000E+00  0.00000000E+00  0.00000000E+00
