Ag11, -948.0 <s> Ni </s>                
   1.00000000000000     
    20.6401159999999990    0.0000000000000000    0.0000000000000000
     0.0000000000000000   20.6401159999999990    0.0000000000000000
     0.0000000000000000    0.0000000000000000   20.6401159999999990
   Ni
    11
Direct
  0.5000000000000000  0.5000000000000000  0.6225116885608513
  0.5805959584230850  0.5674024137871643  0.5239759389426196
  0.5000000000000000  0.6587433109167207  0.5663217364491370
  0.4194040415769151  0.5674024137871643  0.5239759389426196
  0.4194040415769151  0.4325975862128355  0.5239759389426196
  0.4331360060786841  0.5000000000000000  0.4005346205333246
  0.5000000000000000  0.6270273822786414  0.4239359317550711
  0.5668639939213159  0.5000000000000000  0.4005346205333246
  0.5805959584230850  0.4325975862128355  0.5239759389426196
  0.5000000000000000  0.3729726177213584  0.4239359317550711
  0.5000000000000000  0.3412566890832796  0.5663217364491370
 
  0.00000000E+00  0.00000000E+00  0.00000000E+00
  0.00000000E+00  0.00000000E+00  0.00000000E+00
  0.00000000E+00  0.00000000E+00  0.00000000E+00
  0.00000000E+00  0.00000000E+00  0.00000000E+00
  0.00000000E+00  0.00000000E+00  0.00000000E+00
  0.00000000E+00  0.00000000E+00  0.00000000E+00
  0.00000000E+00  0.00000000E+00  0.00000000E+00
  0.00000000E+00  0.00000000E+00  0.00000000E+00
  0.00000000E+00  0.00000000E+00  0.00000000E+00
  0.00000000E+00  0.00000000E+00  0.00000000E+00
  0.00000000E+00  0.00000000E+00  0.00000000E+00
