Pt28, -135.29382772 <s> Ag </s>         
   1.00000000000000     
    21.5706922633651814    0.0000000000000000    0.0000000000000000
     0.0000000000000000   21.5706922633651814    0.0000000000000000
     0.0000000000000000    0.0000000000000000   21.5706922633651814
   Ag
    28
Direct
  0.6459932325223419  0.3779034899560815  0.3792170070497823
  0.5679735084773434  0.4795895308854617  0.3700455484291866
  0.5225358324436928  0.3693803189768542  0.4267773134371400
  0.5203217136197719  0.3191968247950083  0.5442497112226260
  0.6219338366100811  0.5981213964614531  0.4015236042375703
  0.6283535624687906  0.3727769180748638  0.5031394113166641
  0.6691627594511171  0.4876929451156612  0.4546327882013860
  0.4390591101611852  0.4648846516519398  0.3927406596310540
  0.4931666965365562  0.5824711654137952  0.4050307387038397
  0.3714401717454245  0.5739497677021062  0.3627021874925029
  0.4328435108334897  0.4153964781013654  0.5149666724943203
  0.6213539113724413  0.3491545669231569  0.6289087448316210
  0.5203438489429533  0.4308861352974946  0.6132606376029954
  0.5384551402259693  0.4939323741393518  0.4972714764119023
  0.3809404178693060  0.5357222311813299  0.4841074509144162
  0.4188551258338788  0.5130051398119700  0.6031531034626966
  0.6452669225245524  0.4738109405811214  0.5824581792897749
  0.4849419544035944  0.6041830104954837  0.5394001249260242
  0.6278221123516382  0.5932755690676849  0.5266252045090649
  0.5458181508769248  0.6886787234844556  0.4679202915181240
  0.6074062078098764  0.4548180088284700  0.7053511033223313
  0.4054320085643289  0.6664763584277519  0.4525240191530588
  0.4851789350467117  0.5092869144271848  0.7140419938989677
  0.3596944766860324  0.6305136431644996  0.5716176323946723
  0.5680791669489480  0.5621836047438835  0.6360683167428723
  0.5671466363548924  0.6885272609675097  0.5973449383918416
  0.4567649078187624  0.6324748619874405  0.6619867135380927
  0.4502390747242281  0.7282301025614660  0.5594573601002913
 
  0.00000000E+00  0.00000000E+00  0.00000000E+00
  0.00000000E+00  0.00000000E+00  0.00000000E+00
  0.00000000E+00  0.00000000E+00  0.00000000E+00
  0.00000000E+00  0.00000000E+00  0.00000000E+00
  0.00000000E+00  0.00000000E+00  0.00000000E+00
  0.00000000E+00  0.00000000E+00  0.00000000E+00
  0.00000000E+00  0.00000000E+00  0.00000000E+00
  0.00000000E+00  0.00000000E+00  0.00000000E+00
  0.00000000E+00  0.00000000E+00  0.00000000E+00
  0.00000000E+00  0.00000000E+00  0.00000000E+00
  0.00000000E+00  0.00000000E+00  0.00000000E+00
  0.00000000E+00  0.00000000E+00  0.00000000E+00
  0.00000000E+00  0.00000000E+00  0.00000000E+00
  0.00000000E+00  0.00000000E+00  0.00000000E+00
  0.00000000E+00  0.00000000E+00  0.00000000E+00
  0.00000000E+00  0.00000000E+00  0.00000000E+00
  0.00000000E+00  0.00000000E+00  0.00000000E+00
  0.00000000E+00  0.00000000E+00  0.00000000E+00
  0.00000000E+00  0.00000000E+00  0.00000000E+00
  0.00000000E+00  0.00000000E+00  0.00000000E+00
  0.00000000E+00  0.00000000E+00  0.00000000E+00
  0.00000000E+00  0.00000000E+00  0.00000000E+00
  0.00000000E+00  0.00000000E+00  0.00000000E+00
  0.00000000E+00  0.00000000E+00  0.00000000E+00
  0.00000000E+00  0.00000000E+00  0.00000000E+00
  0.00000000E+00  0.00000000E+00  0.00000000E+00
  0.00000000E+00  0.00000000E+00  0.00000000E+00
  0.00000000E+00  0.00000000E+00  0.00000000E+00
