Li12, -15.61207534 <s> Ni </s>          
   1.00000000000000     
    19.6606618213457693    0.0000000000000000    0.0000000000000000
     0.0000000000000000   19.6606618213457693    0.0000000000000000
     0.0000000000000000    0.0000000000000000   19.6606618213457693
   Ni
    12
Direct
  0.5759282160733588  0.4435672821701621  0.3684864941490791
  0.5044089924671730  0.5345441025644657  0.3611710960559835
  0.4993238675860704  0.3580005963824567  0.3941299381866211
  0.4673278860241573  0.4316831457639667  0.3109869206934373
  0.4963017277356000  0.4603411832035038  0.4576682553285608
  0.4150742851230954  0.3680250872362005  0.4739144869983030
  0.3901279283523779  0.4769935214221975  0.5141451262773044
  0.3221027511987189  0.3837523412369509  0.5444579603220522
  0.4021728495389123  0.4862016077768017  0.3944002356278991
  0.3112872882959604  0.3166258491547859  0.4453487558521483
  0.3776383465519677  0.3731942062767860  0.3628735079187347
  0.3050639677219552  0.4338291834810630  0.4391753292592309
 
  0.00000000E+00  0.00000000E+00  0.00000000E+00
  0.00000000E+00  0.00000000E+00  0.00000000E+00
  0.00000000E+00  0.00000000E+00  0.00000000E+00
  0.00000000E+00  0.00000000E+00  0.00000000E+00
  0.00000000E+00  0.00000000E+00  0.00000000E+00
  0.00000000E+00  0.00000000E+00  0.00000000E+00
  0.00000000E+00  0.00000000E+00  0.00000000E+00
  0.00000000E+00  0.00000000E+00  0.00000000E+00
  0.00000000E+00  0.00000000E+00  0.00000000E+00
  0.00000000E+00  0.00000000E+00  0.00000000E+00
  0.00000000E+00  0.00000000E+00  0.00000000E+00
  0.00000000E+00  0.00000000E+00  0.00000000E+00
