Li12, -15.61207534 <s> Ni </s>          
   1.00000000000000     
    19.6606618213457693    0.0000000000000000    0.0000000000000000
     0.0000000000000000   19.6606618213457693    0.0000000000000000
     0.0000000000000000    0.0000000000000000   19.6606618213457693
   Ni
    12
Direct
  0.6088090220788308  0.4478743674201749  0.3481193357538187
  0.5193007841680665  0.5636263348784788  0.3852717108795925
  0.5202887312560680  0.3265373547703455  0.3713396335943316
  0.4813430536985706  0.4504794368569253  0.2932045047281990
  0.5145307358496857  0.4442664626532540  0.4525339004100785
  0.4097829902200661  0.3599205730721675  0.4948903601251804
  0.3859424263033226  0.5047398603756562  0.5203950215404740
  0.2931003088821746  0.3892905211449971  0.5728628944721649
  0.3816866346234097  0.5056029010701479  0.3742656506251818
  0.2914793185190791  0.2873861688655027  0.4681968969949043
  0.3777693533456630  0.3585276226522719  0.3467703569892048
  0.2827247477244185  0.4285065029094113  0.4389078405562099
 
  0.00000000E+00  0.00000000E+00  0.00000000E+00
  0.00000000E+00  0.00000000E+00  0.00000000E+00
  0.00000000E+00  0.00000000E+00  0.00000000E+00
  0.00000000E+00  0.00000000E+00  0.00000000E+00
  0.00000000E+00  0.00000000E+00  0.00000000E+00
  0.00000000E+00  0.00000000E+00  0.00000000E+00
  0.00000000E+00  0.00000000E+00  0.00000000E+00
  0.00000000E+00  0.00000000E+00  0.00000000E+00
  0.00000000E+00  0.00000000E+00  0.00000000E+00
  0.00000000E+00  0.00000000E+00  0.00000000E+00
  0.00000000E+00  0.00000000E+00  0.00000000E+00
  0.00000000E+00  0.00000000E+00  0.00000000E+00
