Li12, -15.80837027 <s> Cu </s>
  1.00000000000000
    20.02189393599640     0.00000000000000     0.00000000000000
     0.00000000000000    20.02189393599640     0.00000000000000
     0.00000000000000     0.00000000000000    20.02189393599640
  Cu    
  12    
Direct
     0.46719194350645      0.53056536718816      0.34862724013504   
     0.50048605077322      0.61097522987760      0.43555033430006   
     0.49244440713826      0.40503428749144      0.34982369454732   
     0.40557510516432      0.52706703780832      0.45194664103183   
     0.52062720622835      0.48471233469014      0.44632444905987   
     0.36769461825823      0.45101312775209      0.35542823390461   
     0.38997259079819      0.31716422904990      0.39791772022277   
     0.42743940910539      0.41050432725927      0.44214428772618   
     0.32460905666015      0.41157731510618      0.47805313796078   
     0.50786694069889      0.34155486777193      0.46896554615392   
     0.44290400871149      0.43457956461199      0.54716282402857   
     0.39710014166852      0.31916379010444      0.52196736964050   
