Cu10, -936.0 <s> Pd </s>                
   1.00000000000000     
    19.0030949999999983    0.0000000000000000    0.0000000000000000
     0.0000000000000000   19.0030949999999983    0.0000000000000000
     0.0000000000000000    0.0000000000000000   19.0030949999999983
   Pd
    10
Direct
  0.4498618214592632  0.4999249850829264  0.5759735685289462
  0.4498775632944926  0.4999160715734735  0.4240314989289130
  0.4168223666533263  0.6135067161583322  0.4999994199954391
  0.5502132660749329  0.4241311599406283  0.4999919086679534
  0.5500586356421966  0.5760055063752139  0.4999822268936249
  0.3353740593267168  0.4997926131828920  0.5000042584724772
  0.4171245446164899  0.3863166123421639  0.5000080689375532
  0.5830166829552448  0.5001196442620793  0.6135900827298973
  0.5830237271977950  0.5000974537318645  0.3864190978568518
  0.6646273280111392  0.5001892421188358  0.4999998546830862
 
  0.00000000E+00  0.00000000E+00  0.00000000E+00
  0.00000000E+00  0.00000000E+00  0.00000000E+00
  0.00000000E+00  0.00000000E+00  0.00000000E+00
  0.00000000E+00  0.00000000E+00  0.00000000E+00
  0.00000000E+00  0.00000000E+00  0.00000000E+00
  0.00000000E+00  0.00000000E+00  0.00000000E+00
  0.00000000E+00  0.00000000E+00  0.00000000E+00
  0.00000000E+00  0.00000000E+00  0.00000000E+00
  0.00000000E+00  0.00000000E+00  0.00000000E+00
  0.00000000E+00  0.00000000E+00  0.00000000E+00
