Ag12, -922.0 <s> Pd </s>                
   1.00000000000000     
    18.6861640000000016    0.0000000000000000    0.0000000000000000
     0.0000000000000000   18.6861640000000016    0.0000000000000000
     0.0000000000000000    0.0000000000000000   18.6861640000000016
   Pd
    12
Direct
  0.5007586423176908  0.5722434945676845  0.5000000000000000
  0.6395409092967561  0.5434650559736318  0.5000000000000000
  0.5620073323532457  0.5230843797558448  0.6180806499867187
  0.4336875118503120  0.4541381798719904  0.5729033954765980
  0.4336875118503120  0.4541381798719904  0.4270966045234019
  0.5578085795632481  0.4283035002601453  0.5000000000000000
  0.5413218145175310  0.3880980288403056  0.3680120356571077
  0.5620073323532457  0.5230843797558448  0.3819193500132815
  0.5413218145175310  0.3880980288403056  0.6319879643428924
  0.4329998046952293  0.5863287443414286  0.3775875970104667
  0.3618589393769965  0.5526892783540198  0.5000000000000000
  0.4329998046952293  0.5863287443414286  0.6224124029895334
 
  0.00000000E+00  0.00000000E+00  0.00000000E+00
  0.00000000E+00  0.00000000E+00  0.00000000E+00
  0.00000000E+00  0.00000000E+00  0.00000000E+00
  0.00000000E+00  0.00000000E+00  0.00000000E+00
  0.00000000E+00  0.00000000E+00  0.00000000E+00
  0.00000000E+00  0.00000000E+00  0.00000000E+00
  0.00000000E+00  0.00000000E+00  0.00000000E+00
  0.00000000E+00  0.00000000E+00  0.00000000E+00
  0.00000000E+00  0.00000000E+00  0.00000000E+00
  0.00000000E+00  0.00000000E+00  0.00000000E+00
  0.00000000E+00  0.00000000E+00  0.00000000E+00
  0.00000000E+00  0.00000000E+00  0.00000000E+00
