Ag10, -17.81083899  <s> Ag </s>
  1.00000000000000
    19.62861197854782     0.00000000000000     0.00000000000000
     0.00000000000000    19.62861197854782     0.00000000000000
     0.00000000000000     0.00000000000000    19.62861197854782
  Ag    
  10    
Direct
     0.51561995573553      0.54032210171499      0.32711069470747   
     0.40994950258444      0.52439607847585      0.41278170781764   
     0.54198388507800      0.55235508872335      0.46529375692718   
     0.32115292285258      0.50385783776578      0.51483756551589   
     0.52137186100670      0.42200217554638      0.41216622888619   
     0.55628243373958      0.54001995755770      0.60389964404746   
     0.45073996552401      0.44849740891959      0.52947105098470   
     0.58793804939511      0.42019847689831      0.53760684990213   
     0.43522943249784      0.58853217158055      0.54762898034045   
     0.65973199158621      0.45981870281751      0.64920352087088   
