Ag10 https://doi.org/10.1021/JP404493W <s> Ag </s>
  1.00000000000000
    17.29992000000000     0.00000000000000     0.00000000000000
     0.00000000000000    17.29992000000000     0.00000000000000
     0.00000000000000     0.00000000000000    17.29992000000000
  Ag    
  10    
Cartesian
     2.30748600000000      0.00900400000000     -0.15876900000000   
     0.16454100000000     -1.77520000000000      0.16577300000000   
     0.15002100000000      1.77572100000000      0.16887800000000   
     0.66161900000000      0.00029400000000      2.37141300000000   
    -1.81620400000000     -0.00849000000000      1.20666900000000   
    -2.49381600000000      2.35485800000000     -0.38744200000000   
     2.58347300000000      2.65980200000000     -0.70591200000000   
    -1.69088900000000     -0.00349700000000     -1.56377900000000   
     2.60771900000000     -2.64011800000000     -0.70131600000000   
    -2.47395000000000     -2.37237500000000     -0.39551400000000   
