Ru11, -725.0 <s> Ni </s>                
   1.00000000000000     
    18.3161400000000008    0.0000000000000000    0.0000000000000000
     0.0000000000000000   18.3161400000000008    0.0000000000000000
     0.0000000000000000    0.0000000000000000   18.3161400000000008
   Ni
    11
Direct
  0.4471316286376933  0.4431643741980051  0.5682164059043514
  0.3876276667052366  0.5442808119816211  0.5122412678581072
  0.4769127068183657  0.6052668846471219  0.4439293840658322
  0.5166398330686682  0.5489089257335731  0.5496320133436506
  0.4649548386521033  0.4713350978044430  0.4444873218765673
  0.5804627793497372  0.5264431555694640  0.4406746299912290
  0.6405877940109698  0.5282311337360962  0.5532217453162798
  0.5942715494568286  0.6366075073723724  0.4983403583510457
  0.4682732879341849  0.3515665216231981  0.4819559157855312
  0.5665576541984614  0.4264399335712554  0.5215142579758744
  0.3565802611677438  0.4177556502063991  0.4857867066444541
 
  0.00000000E+00  0.00000000E+00  0.00000000E+00
  0.00000000E+00  0.00000000E+00  0.00000000E+00
  0.00000000E+00  0.00000000E+00  0.00000000E+00
  0.00000000E+00  0.00000000E+00  0.00000000E+00
  0.00000000E+00  0.00000000E+00  0.00000000E+00
  0.00000000E+00  0.00000000E+00  0.00000000E+00
  0.00000000E+00  0.00000000E+00  0.00000000E+00
  0.00000000E+00  0.00000000E+00  0.00000000E+00
  0.00000000E+00  0.00000000E+00  0.00000000E+00
  0.00000000E+00  0.00000000E+00  0.00000000E+00
  0.00000000E+00  0.00000000E+00  0.00000000E+00
