Ti38, -252.01705389 <s> Ag </s>         
   1.00000000000000     
    22.2696570758534307    0.0000000000000000    0.0000000000000000
     0.0000000000000000   22.2696570758534307    0.0000000000000000
     0.0000000000000000    0.0000000000000000   22.2696570758534307
   Ag
    38
Direct
  0.4802003275503760  0.6459487514520064  0.7181564508825939
  0.5902141572473079  0.6091687134133490  0.6498520658082921
  0.5328387902890520  0.5329688974869907  0.7293320880517715
  0.6488286890586904  0.4954225924454461  0.6876328752299669
  0.5127557673299541  0.6966495695702024  0.6079414756426834
  0.3488888610228291  0.5303371282518745  0.6174806348911041
  0.3885934908489812  0.6633382568986155  0.6017052210096497
  0.6676798352923432  0.5491203478016942  0.5742422645880242
  0.5566772593585596  0.4813395255128859  0.6067708028970890
  0.4413503250933204  0.4622623093882056  0.6812507893772383
  0.4688771690820433  0.5731285487754261  0.6187159929331056
  0.5957248520424715  0.6444645406313531  0.5260595545758030
  0.5573078723303813  0.4103654221771783  0.7160099291330453
  0.6218207331317372  0.3768349480286229  0.6066373490829432
  0.4725664872959284  0.6654566440110518  0.4943035290863341
  0.3268441977300064  0.4641035302227071  0.5045845985130332
  0.4388491958580938  0.4622604389720281  0.5561148007957430
  0.3842339464362642  0.5792251424221186  0.5091686443590373
  0.4899234981162099  0.3636819582505535  0.6191361054482235
  0.3109690050194547  0.5496419489198155  0.4137110126782517
  0.5218300740327159  0.5440179297826804  0.5022700114659757
  0.5370189227048854  0.3920840063239279  0.5091661148350202
  0.4369007042394132  0.4857563250538377  0.4252569925034003
  0.6601292033676788  0.4452718596056300  0.5096317582990718
  0.4238436324446337  0.6111979433635216  0.3927133851471604
  0.4147328374449475  0.3699667999484391  0.4736201714913016
  0.3366082937790617  0.4240007881103455  0.3830751181634766
  0.5662736436710915  0.4691540889796268  0.4122116030800483
  0.6527502050899052  0.5580718173509248  0.4507504917141050
  0.6285454754892223  0.3530828140961004  0.4330907985018561
  0.5107954628253656  0.3544657321100345  0.3922379405548941
  0.5514568965514234  0.6190458652597762  0.4035208842278655
  0.3750886290631701  0.5242110336785910  0.3116831729602086
  0.4455425565930505  0.4201163615326207  0.3128465389988732
  0.6886104670508243  0.4529327015053126  0.3851512066279209
  0.5005055700188992  0.5347764998835097  0.3215037698518511
  0.5718267828512702  0.4235935833066397  0.2984173665620757
  0.6247410238245801  0.5447855109446559  0.3262544276630782
 
  0.00000000E+00  0.00000000E+00  0.00000000E+00
  0.00000000E+00  0.00000000E+00  0.00000000E+00
  0.00000000E+00  0.00000000E+00  0.00000000E+00
  0.00000000E+00  0.00000000E+00  0.00000000E+00
  0.00000000E+00  0.00000000E+00  0.00000000E+00
  0.00000000E+00  0.00000000E+00  0.00000000E+00
  0.00000000E+00  0.00000000E+00  0.00000000E+00
  0.00000000E+00  0.00000000E+00  0.00000000E+00
  0.00000000E+00  0.00000000E+00  0.00000000E+00
  0.00000000E+00  0.00000000E+00  0.00000000E+00
  0.00000000E+00  0.00000000E+00  0.00000000E+00
  0.00000000E+00  0.00000000E+00  0.00000000E+00
  0.00000000E+00  0.00000000E+00  0.00000000E+00
  0.00000000E+00  0.00000000E+00  0.00000000E+00
  0.00000000E+00  0.00000000E+00  0.00000000E+00
  0.00000000E+00  0.00000000E+00  0.00000000E+00
  0.00000000E+00  0.00000000E+00  0.00000000E+00
  0.00000000E+00  0.00000000E+00  0.00000000E+00
  0.00000000E+00  0.00000000E+00  0.00000000E+00
  0.00000000E+00  0.00000000E+00  0.00000000E+00
  0.00000000E+00  0.00000000E+00  0.00000000E+00
  0.00000000E+00  0.00000000E+00  0.00000000E+00
  0.00000000E+00  0.00000000E+00  0.00000000E+00
  0.00000000E+00  0.00000000E+00  0.00000000E+00
  0.00000000E+00  0.00000000E+00  0.00000000E+00
  0.00000000E+00  0.00000000E+00  0.00000000E+00
  0.00000000E+00  0.00000000E+00  0.00000000E+00
  0.00000000E+00  0.00000000E+00  0.00000000E+00
  0.00000000E+00  0.00000000E+00  0.00000000E+00
  0.00000000E+00  0.00000000E+00  0.00000000E+00
  0.00000000E+00  0.00000000E+00  0.00000000E+00
  0.00000000E+00  0.00000000E+00  0.00000000E+00
  0.00000000E+00  0.00000000E+00  0.00000000E+00
  0.00000000E+00  0.00000000E+00  0.00000000E+00
  0.00000000E+00  0.00000000E+00  0.00000000E+00
  0.00000000E+00  0.00000000E+00  0.00000000E+00
  0.00000000E+00  0.00000000E+00  0.00000000E+00
  0.00000000E+00  0.00000000E+00  0.00000000E+00
