Pt46, -231.9266157 <s> Ag </s>          
   1.00000000000000     
    23.1539582558312809    0.0000000000000000    0.0000000000000000
     0.0000000000000000   23.1539582558312809    0.0000000000000000
     0.0000000000000000    0.0000000000000000   23.1539582558312809
   Ag
    46
Direct
  0.7034831876271691  0.4002449701736687  0.5448584715373295
  0.6722367511050966  0.4899377519683365  0.6247932936331273
  0.5976025270979152  0.3353317370620049  0.5831277650516262
  0.6422512371773709  0.3256190689985723  0.4686887845538202
  0.6547536753901378  0.3562592337009908  0.3479996669124631
  0.5885227556263574  0.5475309121923092  0.6953497419579400
  0.5784552365640416  0.4282809097438658  0.6634123239538288
  0.6982638479762395  0.5254607252207918  0.5127745095303217
  0.6931444416152758  0.4354333973200462  0.4298397299889631
  0.5936090198534130  0.4447594298828950  0.5368760272425197
  0.4683510416326296  0.7030244560064297  0.7204455446177084
  0.5419137969336802  0.6479817045740026  0.6429567085353725
  0.4637717722399033  0.4630761611979483  0.6941410000027803
  0.4862965797167051  0.3966297664574795  0.5915400304511959
  0.6330520109842895  0.5972843380743200  0.5858013741533974
  0.5186864985777591  0.5212482654369627  0.6037721298448813
  0.5118521131002316  0.3335447549519848  0.4948237545255213
  0.6976560321729314  0.5533093677689983  0.3898782005942779
  0.6421035221351733  0.6318739317583802  0.4701463678083755
  0.5425783661465418  0.3886731526512200  0.3024384644788961
  0.5527300698748394  0.2962891107773198  0.3869668093323729
  0.4697575138624410  0.5831989292178763  0.7123348696832907
  0.6246603725429872  0.4765630831467825  0.3307760351744388
  0.5623167977506107  0.7108766140898013  0.5419434431814701
  0.3632743745895622  0.5331094143566596  0.6927395165214886
  0.5957310168320543  0.5222304512957838  0.4453081565909404
  0.4470564122779839  0.7260535049527201  0.6024219103148606
  0.4311347907996538  0.6021340843926947  0.5859278756729558
  0.3987312746210829  0.4801490219113574  0.5884902967272180
  0.5795880497206596  0.5920371540294704  0.3524516608127642
  0.4562293188950902  0.3819849272341432  0.3912265944787024
  0.5291851509096579  0.5993835718415907  0.5141998832102124
  0.4874228222320449  0.4823232353099213  0.4879686388956262
  0.4020682456089556  0.3961818546342582  0.5001609261915881
  0.5482296993114455  0.7666305512592523  0.6506392801381637
  0.5439977003040897  0.6831314834737453  0.4223956175942809
  0.5698616344938029  0.4092311952181812  0.4193350070113359
  0.3674639388011418  0.6519514797404582  0.6743768380702997
  0.3131960413353465  0.4800414099509476  0.5031714285894139
  0.3671797049499445  0.5866900061552920  0.4803398382020064
  0.5028935708136983  0.4920959442874859  0.3549417603450891
  0.3121184948949578  0.5709241677594565  0.5892394469167266
  0.3934948158806991  0.4882274001855050  0.4119650187389969
  0.4438729554853865  0.6852934762416343  0.4892739749426149
  0.4640201573068551  0.5917877292388757  0.4079243084377690
  0.3431309431319950  0.6839064450574242  0.5577472557508210
 
  0.00000000E+00  0.00000000E+00  0.00000000E+00
  0.00000000E+00  0.00000000E+00  0.00000000E+00
  0.00000000E+00  0.00000000E+00  0.00000000E+00
  0.00000000E+00  0.00000000E+00  0.00000000E+00
  0.00000000E+00  0.00000000E+00  0.00000000E+00
  0.00000000E+00  0.00000000E+00  0.00000000E+00
  0.00000000E+00  0.00000000E+00  0.00000000E+00
  0.00000000E+00  0.00000000E+00  0.00000000E+00
  0.00000000E+00  0.00000000E+00  0.00000000E+00
  0.00000000E+00  0.00000000E+00  0.00000000E+00
  0.00000000E+00  0.00000000E+00  0.00000000E+00
  0.00000000E+00  0.00000000E+00  0.00000000E+00
  0.00000000E+00  0.00000000E+00  0.00000000E+00
  0.00000000E+00  0.00000000E+00  0.00000000E+00
  0.00000000E+00  0.00000000E+00  0.00000000E+00
  0.00000000E+00  0.00000000E+00  0.00000000E+00
  0.00000000E+00  0.00000000E+00  0.00000000E+00
  0.00000000E+00  0.00000000E+00  0.00000000E+00
  0.00000000E+00  0.00000000E+00  0.00000000E+00
  0.00000000E+00  0.00000000E+00  0.00000000E+00
  0.00000000E+00  0.00000000E+00  0.00000000E+00
  0.00000000E+00  0.00000000E+00  0.00000000E+00
  0.00000000E+00  0.00000000E+00  0.00000000E+00
  0.00000000E+00  0.00000000E+00  0.00000000E+00
  0.00000000E+00  0.00000000E+00  0.00000000E+00
  0.00000000E+00  0.00000000E+00  0.00000000E+00
  0.00000000E+00  0.00000000E+00  0.00000000E+00
  0.00000000E+00  0.00000000E+00  0.00000000E+00
  0.00000000E+00  0.00000000E+00  0.00000000E+00
  0.00000000E+00  0.00000000E+00  0.00000000E+00
  0.00000000E+00  0.00000000E+00  0.00000000E+00
  0.00000000E+00  0.00000000E+00  0.00000000E+00
  0.00000000E+00  0.00000000E+00  0.00000000E+00
  0.00000000E+00  0.00000000E+00  0.00000000E+00
  0.00000000E+00  0.00000000E+00  0.00000000E+00
  0.00000000E+00  0.00000000E+00  0.00000000E+00
  0.00000000E+00  0.00000000E+00  0.00000000E+00
  0.00000000E+00  0.00000000E+00  0.00000000E+00
  0.00000000E+00  0.00000000E+00  0.00000000E+00
  0.00000000E+00  0.00000000E+00  0.00000000E+00
  0.00000000E+00  0.00000000E+00  0.00000000E+00
  0.00000000E+00  0.00000000E+00  0.00000000E+00
  0.00000000E+00  0.00000000E+00  0.00000000E+00
  0.00000000E+00  0.00000000E+00  0.00000000E+00
  0.00000000E+00  0.00000000E+00  0.00000000E+00
  0.00000000E+00  0.00000000E+00  0.00000000E+00
