Pt11, -46.80436904 <s> Cu </s>          
   1.00000000000000     
    19.2597550223306015    0.0000000000000000    0.0000000000000000
     0.0000000000000000   19.2597550223306015    0.0000000000000000
     0.0000000000000000    0.0000000000000000   19.2597550223306015
   Cu
    11
Direct
  0.4893873088840279  0.3698989670079544  0.5551204175098160
  0.5123665536383837  0.4915027828014820  0.5309433950267414
  0.6015166974887131  0.4038449949637587  0.5000168228814316
  0.4050102013492017  0.5611859319981962  0.5418306300383239
  0.3938791541561994  0.4409377665964131  0.5120007772245254
  0.5711821962246680  0.4953423472825262  0.4196448886038069
  0.4903293124688885  0.4009827055686357  0.4357678547050750
  0.3204389395673993  0.5261175274759503  0.4528696952440242
  0.3766477728839248  0.4342899403177041  0.3865192971181565
  0.4471581041217239  0.5276945914307201  0.4278599700264390
  0.4917293125917329  0.4592090449577906  0.3263485141491146
 
  0.00000000E+00  0.00000000E+00  0.00000000E+00
  0.00000000E+00  0.00000000E+00  0.00000000E+00
  0.00000000E+00  0.00000000E+00  0.00000000E+00
  0.00000000E+00  0.00000000E+00  0.00000000E+00
  0.00000000E+00  0.00000000E+00  0.00000000E+00
  0.00000000E+00  0.00000000E+00  0.00000000E+00
  0.00000000E+00  0.00000000E+00  0.00000000E+00
  0.00000000E+00  0.00000000E+00  0.00000000E+00
  0.00000000E+00  0.00000000E+00  0.00000000E+00
  0.00000000E+00  0.00000000E+00  0.00000000E+00
  0.00000000E+00  0.00000000E+00  0.00000000E+00
