Pt11, -46.80436904 <s> Cu </s>
  1.00000000000000
    19.25975502233060     0.00000000000000     0.00000000000000
     0.00000000000000    19.25975502233060     0.00000000000000
     0.00000000000000     0.00000000000000    19.25975502233060
  Cu    
  11    
Direct
     0.45723975405741      0.33528962735939      0.54074882805426   
     0.52757232588663      0.42673821955129      0.50425698506083   
     0.62733261096861      0.48660018048777      0.52035766054670   
     0.39590090977870      0.56329406769635      0.52750229344330   
     0.41267436502203      0.44650343266541      0.53925585932225   
     0.56470043987999      0.49892587276018      0.42033654376932   
     0.46615063086312      0.36404423865462      0.42190989150303   
     0.33114438224841      0.55404445714819      0.42941714557391   
     0.37847700790347      0.44349408028844      0.42436141851828   
     0.45236529498176      0.53868094517545      0.42155695128367   
     0.48608783178473      0.45339147861405      0.33921868545191   
