Ti51, -342.79155515 <s> Ag </s>         
   1.00000000000000     
    22.8581223959106516    0.0000000000000000    0.0000000000000000
     0.0000000000000000   22.8581223959106516    0.0000000000000000
     0.0000000000000000    0.0000000000000000   22.8581223959106516
   Ag
    51
Direct
  0.4038209138555200  0.6588435839492554  0.6626239087920053
  0.5000002573157397  0.5873396943856797  0.6805542066806071
  0.6066839777838277  0.6307136896781831  0.6211203167995614
  0.6021152294717129  0.5133721632380081  0.6692099568394003
  0.5906041333674100  0.7352788083002055  0.5460013911775434
  0.4959574314724002  0.6688312676930506  0.5851430346517593
  0.3794963008534795  0.5369485532715306  0.6668335744214815
  0.6902457497849982  0.6649671268472664  0.5339490079004968
  0.3036071917476816  0.6226532553158138  0.6106595417590736
  0.5781026216109481  0.3999042282767668  0.6989877926337993
  0.4811952135345885  0.4676391033783919  0.6689877151603891
  0.3830778163674094  0.6961760376096596  0.5405195328435159
  0.6823889091670357  0.4240741116432888  0.6179769342571408
  0.6786315979083554  0.5413110263743912  0.5757587011788768
  0.5356894005607585  0.5423589382050602  0.5708974168003107
  0.4154661781208516  0.5764900140021422  0.5535664214809261
  0.4898703671914879  0.7197440955819768  0.4750348250274511
  0.6118839885073696  0.7131703972506220  0.4237397910744840
  0.5840062679758824  0.6215872289084510  0.4946373120632399
  0.6126322472991952  0.3167564852869628  0.6208660545927391
  0.3077770208397602  0.5101737895164967  0.5683713269234165
  0.3024738346110336  0.6102391983726764  0.4910070616622484
  0.3766433226388061  0.4188709357140692  0.6227307709567170
  0.5716533162382806  0.4242406925463278  0.5718175355955695
  0.7253199693487239  0.5720131630680879  0.4675614238932911
  0.3168568416722151  0.5821226586686836  0.3733730501878336
  0.6204198397396892  0.5004736028820326  0.4738568182644242
  0.4094272255832425  0.6362054368493829  0.4363379546025021
  0.4536295130155267  0.4535291675443343  0.5372932763333886
  0.6363778848589629  0.5987399304988678  0.3828044713146709
  0.5210942907641997  0.6362429761359030  0.3865322175405790
  0.7288670740606188  0.4509580331059489  0.4984322016560899
  0.3803731778870803  0.5073260266980109  0.4532125426311859
  0.4844660292932224  0.3527495686533608  0.6255221068396050
  0.5012939556446587  0.5332181973118624  0.4538248626518326
  0.5424009198423314  0.4068810228389044  0.4525656088980122
  0.3238706054608904  0.4088477130233229  0.5083220812685507
  0.4205278820226255  0.3367925805371472  0.5197474313270728
  0.7034250402238184  0.4999423952664177  0.3736236864620448
  0.6589045278004753  0.3519343572973598  0.5147609141231129
  0.2608847963097485  0.4995979118753607  0.4514487034253087
  0.4366788121981909  0.5504523341502149  0.3492675975619627
  0.5739976140342338  0.4894143274627781  0.3589301790998006
  0.3429676952033620  0.4657809335766419  0.3439734148521373
  0.5392927934582294  0.3047642470788537  0.5242991268175923
  0.4604896224199279  0.4317362448585595  0.3602681081675125
  0.4783447355584812  0.3104942922674124  0.4119928871838360
  0.6628690790469428  0.3933530510251352  0.4016280014715883
  0.3707137766214971  0.3648546959560680  0.4078140903655368
  0.5612506259887151  0.3674944867253457  0.3347150119582168
  0.6016560303708266  0.2909455376758863  0.4217487622150356
 
  0.00000000E+00  0.00000000E+00  0.00000000E+00
  0.00000000E+00  0.00000000E+00  0.00000000E+00
  0.00000000E+00  0.00000000E+00  0.00000000E+00
  0.00000000E+00  0.00000000E+00  0.00000000E+00
  0.00000000E+00  0.00000000E+00  0.00000000E+00
  0.00000000E+00  0.00000000E+00  0.00000000E+00
  0.00000000E+00  0.00000000E+00  0.00000000E+00
  0.00000000E+00  0.00000000E+00  0.00000000E+00
  0.00000000E+00  0.00000000E+00  0.00000000E+00
  0.00000000E+00  0.00000000E+00  0.00000000E+00
  0.00000000E+00  0.00000000E+00  0.00000000E+00
  0.00000000E+00  0.00000000E+00  0.00000000E+00
  0.00000000E+00  0.00000000E+00  0.00000000E+00
  0.00000000E+00  0.00000000E+00  0.00000000E+00
  0.00000000E+00  0.00000000E+00  0.00000000E+00
  0.00000000E+00  0.00000000E+00  0.00000000E+00
  0.00000000E+00  0.00000000E+00  0.00000000E+00
  0.00000000E+00  0.00000000E+00  0.00000000E+00
  0.00000000E+00  0.00000000E+00  0.00000000E+00
  0.00000000E+00  0.00000000E+00  0.00000000E+00
  0.00000000E+00  0.00000000E+00  0.00000000E+00
  0.00000000E+00  0.00000000E+00  0.00000000E+00
  0.00000000E+00  0.00000000E+00  0.00000000E+00
  0.00000000E+00  0.00000000E+00  0.00000000E+00
  0.00000000E+00  0.00000000E+00  0.00000000E+00
  0.00000000E+00  0.00000000E+00  0.00000000E+00
  0.00000000E+00  0.00000000E+00  0.00000000E+00
  0.00000000E+00  0.00000000E+00  0.00000000E+00
  0.00000000E+00  0.00000000E+00  0.00000000E+00
  0.00000000E+00  0.00000000E+00  0.00000000E+00
  0.00000000E+00  0.00000000E+00  0.00000000E+00
  0.00000000E+00  0.00000000E+00  0.00000000E+00
  0.00000000E+00  0.00000000E+00  0.00000000E+00
  0.00000000E+00  0.00000000E+00  0.00000000E+00
  0.00000000E+00  0.00000000E+00  0.00000000E+00
  0.00000000E+00  0.00000000E+00  0.00000000E+00
  0.00000000E+00  0.00000000E+00  0.00000000E+00
  0.00000000E+00  0.00000000E+00  0.00000000E+00
  0.00000000E+00  0.00000000E+00  0.00000000E+00
  0.00000000E+00  0.00000000E+00  0.00000000E+00
  0.00000000E+00  0.00000000E+00  0.00000000E+00
  0.00000000E+00  0.00000000E+00  0.00000000E+00
  0.00000000E+00  0.00000000E+00  0.00000000E+00
  0.00000000E+00  0.00000000E+00  0.00000000E+00
  0.00000000E+00  0.00000000E+00  0.00000000E+00
  0.00000000E+00  0.00000000E+00  0.00000000E+00
  0.00000000E+00  0.00000000E+00  0.00000000E+00
  0.00000000E+00  0.00000000E+00  0.00000000E+00
  0.00000000E+00  0.00000000E+00  0.00000000E+00
  0.00000000E+00  0.00000000E+00  0.00000000E+00
  0.00000000E+00  0.00000000E+00  0.00000000E+00
