Cu11, -935.0 <s> Pd </s>                
   1.00000000000000     
    18.9383200000000009    0.0000000000000000    0.0000000000000000
     0.0000000000000000   18.9383200000000009    0.0000000000000000
     0.0000000000000000    0.0000000000000000   18.9383200000000009
   Pd
    11
Direct
  0.4745857628864945  0.4790404532972211  0.3958673029910704
  0.5476271467644203  0.4410161619523912  0.5171933633975986
  0.4705544116898442  0.4833746164030144  0.6268863971018772
  0.3507286561557826  0.5230195485740023  0.4378567514321374
  0.6076055329793348  0.4428319386194928  0.3911925555044481
  0.3434289851360181  0.5221639118363317  0.5795165099139896
  0.5811811538383180  0.5588536198445644  0.5848047446670704
  0.4094682720216649  0.4212976918202100  0.5103059060125131
  0.5779147420132755  0.5685450422799846  0.4393513762766724
  0.6768687766460068  0.4947563580026507  0.5032428807450438
  0.4600365646535567  0.5651006621548531  0.5137822071728477
 
  0.00000000E+00  0.00000000E+00  0.00000000E+00
  0.00000000E+00  0.00000000E+00  0.00000000E+00
  0.00000000E+00  0.00000000E+00  0.00000000E+00
  0.00000000E+00  0.00000000E+00  0.00000000E+00
  0.00000000E+00  0.00000000E+00  0.00000000E+00
  0.00000000E+00  0.00000000E+00  0.00000000E+00
  0.00000000E+00  0.00000000E+00  0.00000000E+00
  0.00000000E+00  0.00000000E+00  0.00000000E+00
  0.00000000E+00  0.00000000E+00  0.00000000E+00
  0.00000000E+00  0.00000000E+00  0.00000000E+00
  0.00000000E+00  0.00000000E+00  0.00000000E+00
