Al39, -122.69368318 <s> Ag </s>         
   1.00000000000000     
    21.7455825249966601    0.0000000000000000    0.0000000000000000
     0.0000000000000000   21.7455825249966601    0.0000000000000000
     0.0000000000000000    0.0000000000000000   21.7455825249966601
   Ag
    39
Direct
  0.3081820284295271  0.3450242365956287  0.4528561272300450
  0.3152997236857081  0.4578993908097846  0.5151599082424489
  0.3246519767104535  0.4557330960471851  0.3869827371870729
  0.4256294453510451  0.3842635662647964  0.4193212410552755
  0.3999456388208745  0.5776902328555513  0.6990067725241511
  0.3936150396700990  0.3589868818586092  0.5486095253616464
  0.3365649472084563  0.5705622894781340  0.5716899934239655
  0.3903574838064264  0.4665084176416088  0.6284110591241107
  0.3587698895055204  0.5650752546981503  0.4452828231995283
  0.4456309880430307  0.4766317590597633  0.5117942712149712
  0.4544536359246091  0.6394928019882608  0.3829853059483956
  0.4428015299894641  0.5087452154673777  0.3688369136454386
  0.4664447278322967  0.5818606510455296  0.5899594959992306
  0.5345000757495199  0.3268878542273454  0.3847348400845715
  0.3733917546207645  0.6793351192471763  0.6256132143318230
  0.5192161582832230  0.3608100076684261  0.5086054570168081
  0.5027793394612936  0.5028694285422620  0.6882864336817351
  0.4921770179100822  0.3856778562401179  0.6308581527601230
  0.4138470010239630  0.6635447322162159  0.5031901964854495
  0.5622688843017973  0.4831453828786631  0.5657466303858383
  0.5330658233343771  0.6297457749656894  0.6893409248886321
  0.6020713347481910  0.4241379602303509  0.6920309674395703
  0.5213093935389976  0.5725894878527894  0.4728042598723386
  0.6269208314743068  0.2995475566733548  0.4730309551290340
  0.6561090196832265  0.4227405137474553  0.4946263918981672
  0.4957200479045209  0.7131291472364807  0.5948067041134809
  0.5335505750308043  0.7052222109283472  0.4711358309737093
  0.6161636234672045  0.3469041994287925  0.5928110801956764
  0.5709203391909425  0.6923752093939168  0.3491670487375896
  0.5582991863799321  0.5643330524735694  0.3469061556888273
  0.5460708084405587  0.4541138294867775  0.4210139398291162
  0.6281746718594500  0.5470743987938284  0.6573142276261291
  0.7000281311107523  0.4458354879803921  0.6115326826307290
  0.5915569442099199  0.6337716476505281  0.5680849046845482
  0.6450637976161989  0.3901008993428155  0.3721567502773332
  0.6771204963128633  0.5454989268114340  0.5323143911839260
  0.6391539908433405  0.6339496745940025  0.4456407592719196
  0.6745640041476092  0.6168090052500583  0.3243429104141894
  0.6643233060989898  0.5145268616384510  0.4045063219320457
 
  0.00000000E+00  0.00000000E+00  0.00000000E+00
  0.00000000E+00  0.00000000E+00  0.00000000E+00
  0.00000000E+00  0.00000000E+00  0.00000000E+00
  0.00000000E+00  0.00000000E+00  0.00000000E+00
  0.00000000E+00  0.00000000E+00  0.00000000E+00
  0.00000000E+00  0.00000000E+00  0.00000000E+00
  0.00000000E+00  0.00000000E+00  0.00000000E+00
  0.00000000E+00  0.00000000E+00  0.00000000E+00
  0.00000000E+00  0.00000000E+00  0.00000000E+00
  0.00000000E+00  0.00000000E+00  0.00000000E+00
  0.00000000E+00  0.00000000E+00  0.00000000E+00
  0.00000000E+00  0.00000000E+00  0.00000000E+00
  0.00000000E+00  0.00000000E+00  0.00000000E+00
  0.00000000E+00  0.00000000E+00  0.00000000E+00
  0.00000000E+00  0.00000000E+00  0.00000000E+00
  0.00000000E+00  0.00000000E+00  0.00000000E+00
  0.00000000E+00  0.00000000E+00  0.00000000E+00
  0.00000000E+00  0.00000000E+00  0.00000000E+00
  0.00000000E+00  0.00000000E+00  0.00000000E+00
  0.00000000E+00  0.00000000E+00  0.00000000E+00
  0.00000000E+00  0.00000000E+00  0.00000000E+00
  0.00000000E+00  0.00000000E+00  0.00000000E+00
  0.00000000E+00  0.00000000E+00  0.00000000E+00
  0.00000000E+00  0.00000000E+00  0.00000000E+00
  0.00000000E+00  0.00000000E+00  0.00000000E+00
  0.00000000E+00  0.00000000E+00  0.00000000E+00
  0.00000000E+00  0.00000000E+00  0.00000000E+00
  0.00000000E+00  0.00000000E+00  0.00000000E+00
  0.00000000E+00  0.00000000E+00  0.00000000E+00
  0.00000000E+00  0.00000000E+00  0.00000000E+00
  0.00000000E+00  0.00000000E+00  0.00000000E+00
  0.00000000E+00  0.00000000E+00  0.00000000E+00
  0.00000000E+00  0.00000000E+00  0.00000000E+00
  0.00000000E+00  0.00000000E+00  0.00000000E+00
  0.00000000E+00  0.00000000E+00  0.00000000E+00
  0.00000000E+00  0.00000000E+00  0.00000000E+00
  0.00000000E+00  0.00000000E+00  0.00000000E+00
  0.00000000E+00  0.00000000E+00  0.00000000E+00
  0.00000000E+00  0.00000000E+00  0.00000000E+00
