Rh11, -739.0 <s> Pd </s>                
   1.00000000000000     
    17.7192639999999990    0.0000000000000000    0.0000000000000000
     0.0000000000000000   17.7192639999999990    0.0000000000000000
     0.0000000000000000    0.0000000000000000   17.7192639999999990
   Pd
    11
Direct
  0.3909803453012377  0.4514973460738236  0.4126067095013397
  0.5398265089895583  0.4874208233809642  0.4333573821834598
  0.5130317884220414  0.4636390251124137  0.5883484852363271
  0.4440607821681670  0.5830379413069370  0.3711515330378283
  0.6358827354938662  0.5401550538574355  0.5421390051422769
  0.6249129252991329  0.3956477333656273  0.5143943809703394
  0.4836143260520027  0.3548737332138481  0.4839567078627495
  0.5272478363663091  0.6130285690295180  0.6123652429150843
  0.4235161509881932  0.5561298222780405  0.5174963440633434
  0.5450240294307142  0.6361782343859139  0.4678229493556485
  0.3719025698061619  0.4183917179954711  0.5563612563663515
 
  0.00000000E+00  0.00000000E+00  0.00000000E+00
  0.00000000E+00  0.00000000E+00  0.00000000E+00
  0.00000000E+00  0.00000000E+00  0.00000000E+00
  0.00000000E+00  0.00000000E+00  0.00000000E+00
  0.00000000E+00  0.00000000E+00  0.00000000E+00
  0.00000000E+00  0.00000000E+00  0.00000000E+00
  0.00000000E+00  0.00000000E+00  0.00000000E+00
  0.00000000E+00  0.00000000E+00  0.00000000E+00
  0.00000000E+00  0.00000000E+00  0.00000000E+00
  0.00000000E+00  0.00000000E+00  0.00000000E+00
  0.00000000E+00  0.00000000E+00  0.00000000E+00
