Al34, -106.34000606 <s> Ag </s>         
   1.00000000000000     
    21.9129697958102803    0.0000000000000000    0.0000000000000000
     0.0000000000000000   21.9129697958102803    0.0000000000000000
     0.0000000000000000    0.0000000000000000   21.9129697958102803
   Ag
    34
Direct
  0.6228274516967659  0.6791508288808852  0.5134331025771890
  0.5434002586262781  0.6175126071007589  0.6016220529544015
  0.7318035122522351  0.6180841606132002  0.4767705288646324
  0.5542991794760824  0.7098388857585500  0.4063843993071948
  0.4835146953855913  0.5495181186725220  0.6880779335470275
  0.6602953752567254  0.4266954532448516  0.5422646118398681
  0.4131510919584021  0.6306054308981945  0.5543018952677295
  0.5739224675805348  0.4871528299535910  0.6199154578756320
  0.5233009127345762  0.5959981134465070  0.4778617393776440
  0.6309200033962394  0.6055528408880914  0.4035170138057793
  0.5017102852995453  0.7172112079879500  0.5256779437683813
  0.4973633700078415  0.4225906900594240  0.6995179090493082
  0.3960607161524885  0.4880277893961406  0.7548915519675486
  0.6396046643051331  0.5556593190606404  0.5376460801197972
  0.4599295838768626  0.5132935431687853  0.5637199605874210
  0.6956533717913231  0.4997681951933117  0.4382447400696035
  0.3628734093433011  0.5561320106110785  0.6476986953794882
  0.5930327415218185  0.3625608253505583  0.6321539070030259
  0.5748687263482142  0.3350972337930094  0.5055976076673669
  0.4323368672461766  0.6735396420996252  0.4257417344953895
  0.6449312092739733  0.3875847754782846  0.4136697748539689
  0.4799059629578984  0.3818055552875776  0.5776374748194516
  0.3361832418073171  0.4876253384895574  0.5404332604157956
  0.5518178636782194  0.4689606134291739  0.4834282085675812
  0.3807833972616758  0.4288733616890480  0.6460197916993621
  0.3992708475934454  0.5522387607508191  0.4494407353758829
  0.5175347386041467  0.6004865708982302  0.3477022395629909
  0.4533737605991559  0.3054889397172483  0.4764230682016726
  0.3943822963436197  0.5957282695327206  0.3296303752204720
  0.5875768832436852  0.4909356492262330  0.3599659929360167
  0.3570502003576805  0.3573908358438713  0.5439825154239840
  0.4586070898334046  0.4866846290417670  0.3553958286161357
  0.4232809564283888  0.4280217392828118  0.4636293837655360
  0.5202672854723668  0.3799487529170802  0.3929593988133531
 
  0.00000000E+00  0.00000000E+00  0.00000000E+00
  0.00000000E+00  0.00000000E+00  0.00000000E+00
  0.00000000E+00  0.00000000E+00  0.00000000E+00
  0.00000000E+00  0.00000000E+00  0.00000000E+00
  0.00000000E+00  0.00000000E+00  0.00000000E+00
  0.00000000E+00  0.00000000E+00  0.00000000E+00
  0.00000000E+00  0.00000000E+00  0.00000000E+00
  0.00000000E+00  0.00000000E+00  0.00000000E+00
  0.00000000E+00  0.00000000E+00  0.00000000E+00
  0.00000000E+00  0.00000000E+00  0.00000000E+00
  0.00000000E+00  0.00000000E+00  0.00000000E+00
  0.00000000E+00  0.00000000E+00  0.00000000E+00
  0.00000000E+00  0.00000000E+00  0.00000000E+00
  0.00000000E+00  0.00000000E+00  0.00000000E+00
  0.00000000E+00  0.00000000E+00  0.00000000E+00
  0.00000000E+00  0.00000000E+00  0.00000000E+00
  0.00000000E+00  0.00000000E+00  0.00000000E+00
  0.00000000E+00  0.00000000E+00  0.00000000E+00
  0.00000000E+00  0.00000000E+00  0.00000000E+00
  0.00000000E+00  0.00000000E+00  0.00000000E+00
  0.00000000E+00  0.00000000E+00  0.00000000E+00
  0.00000000E+00  0.00000000E+00  0.00000000E+00
  0.00000000E+00  0.00000000E+00  0.00000000E+00
  0.00000000E+00  0.00000000E+00  0.00000000E+00
  0.00000000E+00  0.00000000E+00  0.00000000E+00
  0.00000000E+00  0.00000000E+00  0.00000000E+00
  0.00000000E+00  0.00000000E+00  0.00000000E+00
  0.00000000E+00  0.00000000E+00  0.00000000E+00
  0.00000000E+00  0.00000000E+00  0.00000000E+00
  0.00000000E+00  0.00000000E+00  0.00000000E+00
  0.00000000E+00  0.00000000E+00  0.00000000E+00
  0.00000000E+00  0.00000000E+00  0.00000000E+00
  0.00000000E+00  0.00000000E+00  0.00000000E+00
  0.00000000E+00  0.00000000E+00  0.00000000E+00
