Ti9, -49.49120126 <s> Ag </s>           
   1.00000000000000     
    17.3383193504180895    0.0000000000000000    0.0000000000000000
     0.0000000000000000   17.3383193504180895    0.0000000000000000
     0.0000000000000000    0.0000000000000000   17.3383193504180895
   Ag
     9
Direct
  0.6261238622484507  0.3974820287799448  0.5286145031467133
  0.6032275874717218  0.5364661180003785  0.4457000199945383
  0.6282201618409883  0.5436959776452227  0.6089983421918327
  0.5112541959619419  0.4080545590414517  0.4153350999703044
  0.5180181525367394  0.6372620514164007  0.5377819304218915
  0.3661765759895568  0.4295189482682729  0.4830282461791314
  0.4919520352023993  0.4753477722768533  0.5667114279945424
  0.4481440766857914  0.5564083065853073  0.4174538284709559
  0.3696142300640408  0.5784932346684221  0.5591055529464624
 
  0.00000000E+00  0.00000000E+00  0.00000000E+00
  0.00000000E+00  0.00000000E+00  0.00000000E+00
  0.00000000E+00  0.00000000E+00  0.00000000E+00
  0.00000000E+00  0.00000000E+00  0.00000000E+00
  0.00000000E+00  0.00000000E+00  0.00000000E+00
  0.00000000E+00  0.00000000E+00  0.00000000E+00
  0.00000000E+00  0.00000000E+00  0.00000000E+00
  0.00000000E+00  0.00000000E+00  0.00000000E+00
  0.00000000E+00  0.00000000E+00  0.00000000E+00
