Al46, -146.14268696 <s> Ag </s>         
   1.00000000000000     
    22.9031444811903704    0.0000000000000000    0.0000000000000000
     0.0000000000000000   22.9031444811903704    0.0000000000000000
     0.0000000000000000    0.0000000000000000   22.9031444811903704
   Ag
    46
Direct
  0.6755757830483859  0.3466090013999865  0.4677657422039286
  0.6107344115706683  0.3475439173282852  0.5746662647995083
  0.5867103670274926  0.3438997284203622  0.3761111759306717
  0.5583849585542375  0.2917109197726825  0.4811703022558531
  0.7443209035992508  0.4487169853956908  0.4449988051936549
  0.6812653291534301  0.4453111621783809  0.5468998971382286
  0.5131751612460191  0.2761543616770296  0.5975441032446684
  0.6146742293131980  0.4394761746596478  0.6543833914913538
  0.7442993674310125  0.5513016952068837  0.5241956407702207
  0.5829411843005526  0.4256128653304594  0.4667499036890670
  0.6502903798969114  0.4491197479772673  0.3636986598312674
  0.5040166404560585  0.3833219446730583  0.6642666290650326
  0.4728831377320897  0.3657420659295231  0.4228128731009325
  0.4336043517322371  0.2825278416217080  0.5027222235743370
  0.6727978088887748  0.5417925488992303  0.6239099377144618
  0.5237265908038832  0.4544751084600889  0.3600640044060062
  0.5683186256101662  0.5039035773945411  0.5604947282434911
  0.6548085285739200  0.5352449989758482  0.4474441454822138
  0.4023641987656695  0.3372583031382098  0.6097988208267338
  0.6355317305413593  0.6174870923793838  0.5384622165099137
  0.5149295272515819  0.5024739987372489  0.6770534665009051
  0.4960896763091385  0.3877669552995732  0.5462607297840444
  0.5888428542338496  0.5567686442388512  0.3473495286733013
  0.5424264729713940  0.5867885236689924  0.4602544778462251
  0.4732633547796511  0.4880687553211288  0.4775833697726700
  0.5702960074673353  0.6080658649708475  0.6449145406700073
  0.3808714156924982  0.3980517157642568  0.5027936484853998
  0.4636539595479189  0.5694532706523103  0.5728875581421368
  0.4123906409734127  0.4633880365406221  0.6081967246773561
  0.5096107165747203  0.5996788419834853  0.7517860107646185
  0.5960927641218868  0.6953491514478205  0.4521402387119490
  0.4609690318355390  0.5585165066981559  0.3600979839931325
  0.3957666982851633  0.4586528281547444  0.3908233553792452
  0.5283290861490687  0.6605371225509628  0.3563005249579638
  0.4088521319032244  0.5512088173108889  0.6985931331909149
  0.5234331769084566  0.6749628098983952  0.5518058407407473
  0.4213457416521670  0.6159924145472845  0.4653877089060365
  0.3539601147400956  0.5169914208867520  0.5023499152091903
  0.4572378620747548  0.6587422047977112  0.6584519030267435
  0.3474348761242511  0.5875998685830687  0.6031640238024110
  0.4759274998088814  0.7249940365000257  0.4465767938056476
  0.3381593782304799  0.5703363338760280  0.3895456252036862
  0.4061553168301738  0.6704550726878420  0.3547109270655881
  0.4014728354135171  0.6947220551137823  0.5562995892129360
  0.3030834796426087  0.6327038179332380  0.5004000840854153
  0.3555671860001233  0.7307109089356660  0.4499676345430490
 
  0.00000000E+00  0.00000000E+00  0.00000000E+00
  0.00000000E+00  0.00000000E+00  0.00000000E+00
  0.00000000E+00  0.00000000E+00  0.00000000E+00
  0.00000000E+00  0.00000000E+00  0.00000000E+00
  0.00000000E+00  0.00000000E+00  0.00000000E+00
  0.00000000E+00  0.00000000E+00  0.00000000E+00
  0.00000000E+00  0.00000000E+00  0.00000000E+00
  0.00000000E+00  0.00000000E+00  0.00000000E+00
  0.00000000E+00  0.00000000E+00  0.00000000E+00
  0.00000000E+00  0.00000000E+00  0.00000000E+00
  0.00000000E+00  0.00000000E+00  0.00000000E+00
  0.00000000E+00  0.00000000E+00  0.00000000E+00
  0.00000000E+00  0.00000000E+00  0.00000000E+00
  0.00000000E+00  0.00000000E+00  0.00000000E+00
  0.00000000E+00  0.00000000E+00  0.00000000E+00
  0.00000000E+00  0.00000000E+00  0.00000000E+00
  0.00000000E+00  0.00000000E+00  0.00000000E+00
  0.00000000E+00  0.00000000E+00  0.00000000E+00
  0.00000000E+00  0.00000000E+00  0.00000000E+00
  0.00000000E+00  0.00000000E+00  0.00000000E+00
  0.00000000E+00  0.00000000E+00  0.00000000E+00
  0.00000000E+00  0.00000000E+00  0.00000000E+00
  0.00000000E+00  0.00000000E+00  0.00000000E+00
  0.00000000E+00  0.00000000E+00  0.00000000E+00
  0.00000000E+00  0.00000000E+00  0.00000000E+00
  0.00000000E+00  0.00000000E+00  0.00000000E+00
  0.00000000E+00  0.00000000E+00  0.00000000E+00
  0.00000000E+00  0.00000000E+00  0.00000000E+00
  0.00000000E+00  0.00000000E+00  0.00000000E+00
  0.00000000E+00  0.00000000E+00  0.00000000E+00
  0.00000000E+00  0.00000000E+00  0.00000000E+00
  0.00000000E+00  0.00000000E+00  0.00000000E+00
  0.00000000E+00  0.00000000E+00  0.00000000E+00
  0.00000000E+00  0.00000000E+00  0.00000000E+00
  0.00000000E+00  0.00000000E+00  0.00000000E+00
  0.00000000E+00  0.00000000E+00  0.00000000E+00
  0.00000000E+00  0.00000000E+00  0.00000000E+00
  0.00000000E+00  0.00000000E+00  0.00000000E+00
  0.00000000E+00  0.00000000E+00  0.00000000E+00
  0.00000000E+00  0.00000000E+00  0.00000000E+00
  0.00000000E+00  0.00000000E+00  0.00000000E+00
  0.00000000E+00  0.00000000E+00  0.00000000E+00
  0.00000000E+00  0.00000000E+00  0.00000000E+00
  0.00000000E+00  0.00000000E+00  0.00000000E+00
  0.00000000E+00  0.00000000E+00  0.00000000E+00
  0.00000000E+00  0.00000000E+00  0.00000000E+00
