Be11, -23.0054346 <s> Ni </s>           
   1.00000000000000     
    17.8391946419998284    0.0000000000000000    0.0000000000000000
     0.0000000000000000   17.8391946419998284    0.0000000000000000
     0.0000000000000000    0.0000000000000000   17.8391946419998284
   Ni
    11
Direct
  0.5498170673177890  0.4709084298259031  0.4278186694631134
  0.5438686763335084  0.6018077963805553  0.4260594003350894
  0.4719469818261926  0.5329954827353967  0.5133879476759280
  0.6516018970774581  0.5430327596821629  0.4668011119243388
  0.6136327558836155  0.6545210275847265  0.5239611958893631
  0.6713816225779358  0.5593564819802398  0.5949120216890091
  0.4821234665018191  0.6640932992640345  0.5233260733423684
  0.5808018911748191  0.4732434941813234  0.5550620346380591
  0.4766281628419571  0.4816116691992287  0.6338247315727068
  0.5441770883443917  0.5883253718475597  0.6106233331984612
  0.4161238187859273  0.4322076159842694  0.7263269089369768
 
  0.00000000E+00  0.00000000E+00  0.00000000E+00
  0.00000000E+00  0.00000000E+00  0.00000000E+00
  0.00000000E+00  0.00000000E+00  0.00000000E+00
  0.00000000E+00  0.00000000E+00  0.00000000E+00
  0.00000000E+00  0.00000000E+00  0.00000000E+00
  0.00000000E+00  0.00000000E+00  0.00000000E+00
  0.00000000E+00  0.00000000E+00  0.00000000E+00
  0.00000000E+00  0.00000000E+00  0.00000000E+00
  0.00000000E+00  0.00000000E+00  0.00000000E+00
  0.00000000E+00  0.00000000E+00  0.00000000E+00
  0.00000000E+00  0.00000000E+00  0.00000000E+00
