Be11, -23.0054346 <s> Ni </s>           
   1.00000000000000     
    17.8391946419998284    0.0000000000000000    0.0000000000000000
     0.0000000000000000   17.8391946419998284    0.0000000000000000
     0.0000000000000000    0.0000000000000000   17.8391946419998284
   Ni
    11
Direct
  0.5505473468799640  0.4558495443462925  0.4004713417419773
  0.5406198453018770  0.6212911918408777  0.4032771810819639
  0.4522687260636293  0.5189884471023000  0.5007435281304516
  0.6627900186919667  0.5408287683065847  0.4656743327059449
  0.6335723801548158  0.6952062793906224  0.5170732849799081
  0.6961611195301756  0.5629560058592078  0.6112149510597311
  0.4647745695195049  0.6880154437141262  0.5201431089389152
  0.5911743407378142  0.4339596863591201  0.5607913960621120
  0.4636713496642620  0.4600586659940996  0.6525545920886240
  0.5504095917150869  0.5971284887901374  0.6107989577573388
  0.3961141404063184  0.4278209069620316  0.7593607541184464
 
  0.00000000E+00  0.00000000E+00  0.00000000E+00
  0.00000000E+00  0.00000000E+00  0.00000000E+00
  0.00000000E+00  0.00000000E+00  0.00000000E+00
  0.00000000E+00  0.00000000E+00  0.00000000E+00
  0.00000000E+00  0.00000000E+00  0.00000000E+00
  0.00000000E+00  0.00000000E+00  0.00000000E+00
  0.00000000E+00  0.00000000E+00  0.00000000E+00
  0.00000000E+00  0.00000000E+00  0.00000000E+00
  0.00000000E+00  0.00000000E+00  0.00000000E+00
  0.00000000E+00  0.00000000E+00  0.00000000E+00
  0.00000000E+00  0.00000000E+00  0.00000000E+00
