Ti44, -293.70012744 <s> Ag </s>         
   1.00000000000000     
    22.4455377345646987    0.0000000000000000    0.0000000000000000
     0.0000000000000000   22.4455377345646987    0.0000000000000000
     0.0000000000000000    0.0000000000000000   22.4455377345646987
   Ag
    44
Direct
  0.5985506615878666  0.3537943430748460  0.4795349454537626
  0.5651989879414159  0.3189938398311668  0.6003573353532319
  0.7138403663785597  0.4011173844101747  0.4474112456461207
  0.6749479704042168  0.3895484737231260  0.5757139445102352
  0.4916542082492263  0.2934284161425780  0.4993677445947311
  0.3927394713969321  0.3503427318555833  0.4467735639593755
  0.6145942353692504  0.4299115678496009  0.3790946506889784
  0.4441064262633667  0.3525645785229112  0.5997434591699821
  0.7482713164943229  0.4908561317143741  0.5334458925923383
  0.5620175911424802  0.4416389034997503  0.5999746261166981
  0.5047241769229655  0.3668389429257055  0.3901579897858831
  0.6288115974041849  0.4744813033202867  0.4975503779530841
  0.3662542167700946  0.4354832345820568  0.5406178319068315
  0.4881487948925395  0.4211792787634445  0.5008516075869013
  0.7024834984873846  0.5326349618293503  0.4166591114276154
  0.6603676141190576  0.5135141004338384  0.6201683171446696
  0.4095858635992767  0.3956752898694622  0.3127069770080612
  0.5125941920001258  0.4673819572451384  0.3148225660037481
  0.2915810929870896  0.4232925809298448  0.4390849278784175
  0.6141280667692071  0.5437833532493984  0.3280208723185848
  0.5118606786785057  0.3924846405010021  0.6978638307405677
  0.4076877509175372  0.4691303665990355  0.4123097147709820
  0.4047817163894661  0.5261393672218113  0.2997241220846030
  0.2991693650032934  0.5219927218873576  0.3654777174162369
  0.6784027838182607  0.5991511616731940  0.5299050210576285
  0.5285505715290519  0.5158032885233372  0.4309377016782518
  0.4420429421054923  0.4750075988403157  0.6323207143654846
  0.5592628329737848  0.5594905089800544  0.5482215245556211
  0.4403803444746944  0.5376243290111850  0.5187003259847762
  0.6092394280667326  0.6180765517936817  0.4272044702905065
  0.6122980100251310  0.6293599965444360  0.6417315024403625
  0.5023774830779969  0.5992321300498243  0.3446521193962078
  0.3158713809783552  0.5402588564480337  0.4877042965792701
  0.5415008944223518  0.5333251709358702  0.6813613815795697
  0.3940614653212793  0.5964512255935664  0.4056493746877822
  0.4827748462237053  0.6298349756069991  0.6110906025361087
  0.3552402846309205  0.5613418126679853  0.6071084001390872
  0.4919400950326441  0.6430665246444288  0.4667371936959483
  0.5839790716587439  0.6867092945075995  0.5345397562127874
  0.4253906569746828  0.5792398957714265  0.7082758347641533
  0.3775313053476376  0.6499517381899079  0.5212503610796332
  0.5264793818088610  0.6480239033945092  0.7309580243477524
  0.3767463268274892  0.6816473822645227  0.6423131173798383
  0.4663231623933899  0.7349133849063075  0.5511972772881630
 
  0.00000000E+00  0.00000000E+00  0.00000000E+00
  0.00000000E+00  0.00000000E+00  0.00000000E+00
  0.00000000E+00  0.00000000E+00  0.00000000E+00
  0.00000000E+00  0.00000000E+00  0.00000000E+00
  0.00000000E+00  0.00000000E+00  0.00000000E+00
  0.00000000E+00  0.00000000E+00  0.00000000E+00
  0.00000000E+00  0.00000000E+00  0.00000000E+00
  0.00000000E+00  0.00000000E+00  0.00000000E+00
  0.00000000E+00  0.00000000E+00  0.00000000E+00
  0.00000000E+00  0.00000000E+00  0.00000000E+00
  0.00000000E+00  0.00000000E+00  0.00000000E+00
  0.00000000E+00  0.00000000E+00  0.00000000E+00
  0.00000000E+00  0.00000000E+00  0.00000000E+00
  0.00000000E+00  0.00000000E+00  0.00000000E+00
  0.00000000E+00  0.00000000E+00  0.00000000E+00
  0.00000000E+00  0.00000000E+00  0.00000000E+00
  0.00000000E+00  0.00000000E+00  0.00000000E+00
  0.00000000E+00  0.00000000E+00  0.00000000E+00
  0.00000000E+00  0.00000000E+00  0.00000000E+00
  0.00000000E+00  0.00000000E+00  0.00000000E+00
  0.00000000E+00  0.00000000E+00  0.00000000E+00
  0.00000000E+00  0.00000000E+00  0.00000000E+00
  0.00000000E+00  0.00000000E+00  0.00000000E+00
  0.00000000E+00  0.00000000E+00  0.00000000E+00
  0.00000000E+00  0.00000000E+00  0.00000000E+00
  0.00000000E+00  0.00000000E+00  0.00000000E+00
  0.00000000E+00  0.00000000E+00  0.00000000E+00
  0.00000000E+00  0.00000000E+00  0.00000000E+00
  0.00000000E+00  0.00000000E+00  0.00000000E+00
  0.00000000E+00  0.00000000E+00  0.00000000E+00
  0.00000000E+00  0.00000000E+00  0.00000000E+00
  0.00000000E+00  0.00000000E+00  0.00000000E+00
  0.00000000E+00  0.00000000E+00  0.00000000E+00
  0.00000000E+00  0.00000000E+00  0.00000000E+00
  0.00000000E+00  0.00000000E+00  0.00000000E+00
  0.00000000E+00  0.00000000E+00  0.00000000E+00
  0.00000000E+00  0.00000000E+00  0.00000000E+00
  0.00000000E+00  0.00000000E+00  0.00000000E+00
  0.00000000E+00  0.00000000E+00  0.00000000E+00
  0.00000000E+00  0.00000000E+00  0.00000000E+00
  0.00000000E+00  0.00000000E+00  0.00000000E+00
  0.00000000E+00  0.00000000E+00  0.00000000E+00
  0.00000000E+00  0.00000000E+00  0.00000000E+00
  0.00000000E+00  0.00000000E+00  0.00000000E+00
