Ti12, -72.23632228 <s> Ni </s>          
   1.00000000000000     
    18.5518327869904205    0.0000000000000000    0.0000000000000000
     0.0000000000000000   18.5518327869904205    0.0000000000000000
     0.0000000000000000    0.0000000000000000   18.5518327869904205
   Ni
    12
Direct
  0.3625470669203098  0.4034176644897467  0.4516954071506833
  0.4727408004017918  0.3690025867126929  0.3932198821440095
  0.3700628129492683  0.3915047015148128  0.3267507254415299
  0.4725604934014740  0.4560736782452697  0.2973721827629243
  0.5245390596163944  0.4793645078421903  0.4087155553923191
  0.4484833201416127  0.5193755714004670  0.5056965325423051
  0.3667411279314050  0.4410113426233386  0.5703587042704198
  0.5685700181168208  0.4836177351187288  0.5247864377516810
  0.3992751994199171  0.5011992748017204  0.3877247177237160
  0.3255498578897859  0.5230229915269307  0.4867459249436870
  0.5799728844691521  0.3762381835217688  0.4604204457813209
  0.4725526726176679  0.3997169005799682  0.5188593366347235
 
  0.00000000E+00  0.00000000E+00  0.00000000E+00
  0.00000000E+00  0.00000000E+00  0.00000000E+00
  0.00000000E+00  0.00000000E+00  0.00000000E+00
  0.00000000E+00  0.00000000E+00  0.00000000E+00
  0.00000000E+00  0.00000000E+00  0.00000000E+00
  0.00000000E+00  0.00000000E+00  0.00000000E+00
  0.00000000E+00  0.00000000E+00  0.00000000E+00
  0.00000000E+00  0.00000000E+00  0.00000000E+00
  0.00000000E+00  0.00000000E+00  0.00000000E+00
  0.00000000E+00  0.00000000E+00  0.00000000E+00
  0.00000000E+00  0.00000000E+00  0.00000000E+00
  0.00000000E+00  0.00000000E+00  0.00000000E+00
