Ti12, -72.23632228 <s> Ni </s>          
   1.00000000000000     
    18.5518327869904205    0.0000000000000000    0.0000000000000000
     0.0000000000000000   18.5518327869904205    0.0000000000000000
     0.0000000000000000    0.0000000000000000   18.5518327869904205
   Ni
    12
Direct
  0.3480242010801990  0.3854519812018858  0.4743305897038113
  0.4592443786572759  0.3449917580894971  0.3810587649487808
  0.3279042088742175  0.4114708303900322  0.3177342761045316
  0.5070743039027816  0.4296236061603896  0.2785295399244654
  0.5455238806906398  0.5052833908520075  0.4142177579021594
  0.4346947395038132  0.5453488728639500  0.5077444159665739
  0.3867415653150671  0.4603843630178112  0.6102359505413611
  0.5664416426858594  0.4792790124428067  0.5705094461537390
  0.4051569049471272  0.5210666598561972  0.3620175012782285
  0.2842254606382212  0.5113910823174469  0.4663185402209205
  0.6100049014099244  0.3796803959898606  0.4229625891755318
  0.4885591261704806  0.3695731851957581  0.5266864806192165
 
  0.00000000E+00  0.00000000E+00  0.00000000E+00
  0.00000000E+00  0.00000000E+00  0.00000000E+00
  0.00000000E+00  0.00000000E+00  0.00000000E+00
  0.00000000E+00  0.00000000E+00  0.00000000E+00
  0.00000000E+00  0.00000000E+00  0.00000000E+00
  0.00000000E+00  0.00000000E+00  0.00000000E+00
  0.00000000E+00  0.00000000E+00  0.00000000E+00
  0.00000000E+00  0.00000000E+00  0.00000000E+00
  0.00000000E+00  0.00000000E+00  0.00000000E+00
  0.00000000E+00  0.00000000E+00  0.00000000E+00
  0.00000000E+00  0.00000000E+00  0.00000000E+00
  0.00000000E+00  0.00000000E+00  0.00000000E+00
