Al10, -26.42114976 <s> Pd </s>          
   1.00000000000000     
    18.2532693693482493    0.0000000000000000    0.0000000000000000
     0.0000000000000000   18.2532693693482493    0.0000000000000000
     0.0000000000000000    0.0000000000000000   18.2532693693482493
   Pd
    10
Direct
  0.3709723208450399  0.5810175893386507  0.4691603669776880
  0.4060147872280993  0.4586760834372195  0.4006729428420834
  0.4473798687746207  0.3450637194942762  0.4745120670214171
  0.5108020326568816  0.5541369227127381  0.4492549392321390
  0.3889584918398949  0.4596063957088902  0.5466219453268363
  0.5447686835033962  0.4174262346123953  0.3936220744866311
  0.4585675759368337  0.5809357587291275  0.5842568105678805
  0.5328248525734576  0.4408269663435609  0.5404784826062049
  0.5982487999620895  0.5620465061513210  0.5805266956022396
  0.6425746911311855  0.4999779129570282  0.4615111479374389
 
  0.00000000E+00  0.00000000E+00  0.00000000E+00
  0.00000000E+00  0.00000000E+00  0.00000000E+00
  0.00000000E+00  0.00000000E+00  0.00000000E+00
  0.00000000E+00  0.00000000E+00  0.00000000E+00
  0.00000000E+00  0.00000000E+00  0.00000000E+00
  0.00000000E+00  0.00000000E+00  0.00000000E+00
  0.00000000E+00  0.00000000E+00  0.00000000E+00
  0.00000000E+00  0.00000000E+00  0.00000000E+00
  0.00000000E+00  0.00000000E+00  0.00000000E+00
  0.00000000E+00  0.00000000E+00  0.00000000E+00
