Ti50, -335.94724772 <s> Ag </s>
  1.00000000000000
    23.05785719904887     0.00000000000000     0.00000000000000
     0.00000000000000    23.05785719904887     0.00000000000000
     0.00000000000000     0.00000000000000    23.05785719904887
  Ag    
  50    
Direct
     0.60472929324170      0.56994242530143      0.31159793081418   
     0.55617085113438      0.47763085787048      0.28618827553973   
     0.66261267825398      0.46264675273471      0.33942535087143   
     0.57912419965928      0.37949561573825      0.35221633916515   
     0.48582246829315      0.56112348582880      0.34882393659916   
     0.68523722162139      0.56852961911023      0.39870095243832   
     0.67461275465078      0.36987591974646      0.41373641926702   
     0.57852242597852      0.62604558236328      0.41399108150345   
     0.56995260817634      0.50162111717041      0.39923215570803   
     0.46649972901767      0.44306561681892      0.34242121816573   
     0.36463601765899      0.52539455419429      0.39298067790122   
     0.49318926829321      0.37180201849395      0.42986511221509   
     0.58898832118223      0.31527205354617      0.46000982788823   
     0.71532690591071      0.46480776663106      0.45646952422272   
     0.37128707128588      0.39302353446664      0.41903236702715   
     0.40003136572339      0.62664984452545      0.42410546206800   
     0.59281033829148      0.42958046400356      0.48411412458570   
     0.67556546942338      0.65358106121782      0.48231331582996   
     0.74229115165710      0.56354859721669      0.50414523991900   
     0.50244271013029      0.57770273642436      0.47742778658998   
     0.30060529657635      0.58515804198266      0.48542263937821   
     0.67850876018783      0.37253682601512      0.52775042672083   
     0.30381909668746      0.46507796627715      0.46897440798527   
     0.45777770094059      0.47699280643942      0.44884702529791   
     0.48776989365905      0.69191552108083      0.47708039351719   
     0.68412145533668      0.60857432019024      0.58959324874674   
     0.42238518921622      0.31360856996272      0.48874195827285   
     0.69827318519702      0.48285803990778      0.57432742595883   
     0.62333873620056      0.55043065932041      0.50725618550104   
     0.38737386123500      0.54309239924324      0.51957168503463   
     0.38643252745427      0.66998539696890      0.53322566671411   
     0.51872771183232      0.36333804091192      0.55094253938593   
     0.29866892158222      0.47836790646694      0.57648798972779   
     0.40566094187378      0.42252286077786      0.54432104618480   
     0.51123024184037      0.48536546301771      0.56344765798039   
     0.48675421879528      0.71811869645963      0.58259202228382   
     0.31751904505071      0.35758575425966      0.52781711830589   
     0.59890458998717      0.43179271710863      0.61053845353893   
     0.46986757400149      0.59707966676376      0.59552756980659   
     0.59338440919131      0.55313455260243      0.62223321337826   
     0.57865829591522      0.65335897818269      0.55135426257197   
     0.34465664113644      0.59572392847169      0.61765543379675   
     0.41017857756912      0.31501377583033      0.59447087809738   
     0.39791388042340      0.49713371145992      0.65275425512436   
     0.41298503645009      0.68567980995272      0.65193772024893   
     0.46802017508345      0.40508668306419      0.64887070415634   
     0.34766491184632      0.39380721927665      0.64121466733168   
     0.51045442979148      0.52337632178954      0.68680094645119   
     0.52794220752796      0.65097003219029      0.67397566571530   
     0.42548752658157      0.59482653788095      0.70779822463632   
