Al12, -32.87197897 <s> Cu </s>          
   1.00000000000000     
    19.8453329303631207    0.0000000000000000    0.0000000000000000
     0.0000000000000000   19.8453329303631207    0.0000000000000000
     0.0000000000000000    0.0000000000000000   19.8453329303631207
   Cu
    12
Direct
  0.4448247160310974  0.3752610374803523  0.4854935297110278
  0.5588540629615313  0.5304202771714323  0.5419193456856993
  0.3637377623420899  0.4315014960575161  0.4044746966785302
  0.4674825420355866  0.3844279732755728  0.3656388913299201
  0.4572225909211674  0.5047766046609649  0.3597655231010365
  0.5406798665854181  0.4505305492169259  0.4388685973838949
  0.5220659195924141  0.5702692010548980  0.4338448295525700
  0.3897378283518946  0.4376008700342183  0.2870235246104421
  0.5370219894014614  0.4144945043534372  0.5555365458682551
  0.4453611550147235  0.4967518062899701  0.4997179197714460
  0.3424060235771990  0.4297009607912308  0.5207096737488269
  0.4296759076143259  0.4282889775573460  0.6042655918160829
 
  0.00000000E+00  0.00000000E+00  0.00000000E+00
  0.00000000E+00  0.00000000E+00  0.00000000E+00
  0.00000000E+00  0.00000000E+00  0.00000000E+00
  0.00000000E+00  0.00000000E+00  0.00000000E+00
  0.00000000E+00  0.00000000E+00  0.00000000E+00
  0.00000000E+00  0.00000000E+00  0.00000000E+00
  0.00000000E+00  0.00000000E+00  0.00000000E+00
  0.00000000E+00  0.00000000E+00  0.00000000E+00
  0.00000000E+00  0.00000000E+00  0.00000000E+00
  0.00000000E+00  0.00000000E+00  0.00000000E+00
  0.00000000E+00  0.00000000E+00  0.00000000E+00
  0.00000000E+00  0.00000000E+00  0.00000000E+00
