Al12, -32.87197897 <s> Cu </s>
  1.00000000000000
    19.84533293036312     0.00000000000000     0.00000000000000
     0.00000000000000    19.84533293036312     0.00000000000000
     0.00000000000000     0.00000000000000    19.84533293036312
  Cu    
  12    
Direct
     0.45179639657766      0.37271871503389      0.48406755305661   
     0.55611767031958      0.52774517270403      0.53115689596665   
     0.36727410360062      0.43937690762206      0.41463330809696   
     0.46615781057553      0.38877642315975      0.36682966175528   
     0.45570024421207      0.50932792411359      0.37267792832937   
     0.54160286222369      0.44283249260836      0.44140996548398   
     0.53425859430361      0.57717978963076      0.42787268698866   
     0.38998869189447      0.43864381357790      0.28516155681668   
     0.53628610402289      0.41808533519861      0.56243972889699   
     0.44277299520674      0.49462420870457      0.49231740473944   
     0.33160812235423      0.41910250933831      0.52475024911893   
     0.42550676913781      0.42561096625203      0.59394173000818   
