Al54, -172.58116458 <s> Ag </s>         
   1.00000000000000     
    24.7112756424794711    0.0000000000000000    0.0000000000000000
     0.0000000000000000   24.7112756424794711    0.0000000000000000
     0.0000000000000000    0.0000000000000000   24.7112756424794711
   Ag
    54
Direct
  0.7379516363157178  0.5217481979423931  0.5424876918284295
  0.6872259367673262  0.6238029539931024  0.5404938408987875
  0.6266322681680366  0.6983811753583914  0.5949319274114467
  0.7297584705367691  0.5755528788994123  0.4401180534016979
  0.6417869389443203  0.5419673467224901  0.6104656559714418
  0.5840588755365576  0.5201958430660407  0.7108411811851144
  0.5740094687965663  0.6267170407779100  0.6633951008783866
  0.7057345752201265  0.4657219075926997  0.4389332195285549
  0.6657266870151699  0.4374550181503695  0.5481759227462443
  0.6343246102724849  0.6367739152419448  0.4388556435065455
  0.6338315607657016  0.5321122388641406  0.4955164554068665
  0.5898718652031427  0.4389074675977278  0.6331343326649062
  0.5689674152300658  0.6152698315645413  0.5440490012952250
  0.5211246718169413  0.7172735610670991  0.5626739162819531
  0.4854454612968001  0.5761810028728002  0.7175745772775766
  0.6635481517953224  0.3650812940403746  0.4573221974659502
  0.5397513209908643  0.6864796876534175  0.4555820058820638
  0.6381851161564904  0.5403250542826561  0.3774766620496071
  0.5222488002419444  0.5352412242105457  0.6169816170091299
  0.5917955975992082  0.3562063397715007  0.5471946700964551
  0.4668894856750059  0.6353514146726735  0.6183405367941446
  0.4807657048895898  0.4588418238469593  0.6861256084364550
  0.5840543895204457  0.4456271658903049  0.4243040895449872
  0.5413293453356118  0.4662437219681609  0.5287341217653529
  0.5514554232843933  0.6261343288813087  0.3546460633566575
  0.6250541414151636  0.2643063743161976  0.4901419049220512
  0.4485675295156711  0.7498084259172327  0.4795584707378835
  0.5557855790681686  0.3352899165469041  0.4340140308844702
  0.4144166137367390  0.7362351415544464  0.5920860515799757
  0.5399041255473372  0.5583234331336838  0.4388936081121389
  0.3985965865320198  0.6572602225096410  0.5140260431620561
  0.3551962451110054  0.6439583753435055  0.6239389943706640
  0.4026592075339529  0.5386041866250347  0.6487606431501677
  0.4668948399591593  0.3730015614435543  0.4928646152666230
  0.4659407047208827  0.5653191480521429  0.5228910546076501
  0.5184325445650949  0.2738521240986657  0.5243262925282858
  0.5432096877697320  0.5014716606532686  0.3341317408034171
  0.4307002505698028  0.4640896334496133  0.5650920125972093
  0.4443267397079952  0.6572394378669497  0.4086232198879655
  0.4998488904896641  0.3780350570474003  0.6048944554684275
  0.4576728098502263  0.4791985516415639  0.4490134687910189
  0.3217556793161712  0.4668452989346745  0.6026996458372657
  0.3948471586882977  0.3920631759689938  0.6456284244956575
  0.3513299228574200  0.5606402495923767  0.5491575111118314
  0.4245706480041665  0.3013058741115664  0.5753436828761308
  0.4860894271547899  0.3984625136562640  0.3724909898685400
  0.3793190200948215  0.5703963745851222  0.4390634352490483
  0.4507629514443150  0.5619208427931129  0.3519158182696182
  0.3436135410719839  0.4715207424312642  0.4805681544097356
  0.4489741235820602  0.4683826766979083  0.2861959481722574
  0.3756712630782392  0.3764444261989390  0.4252496904430883
  0.3535532273758198  0.3760297932737600  0.5364433135916058
  0.3728470894312517  0.4791913493374333  0.3694764808914069
  0.3872443815668804  0.3798285429570294  0.3148747399630440
 
  0.00000000E+00  0.00000000E+00  0.00000000E+00
  0.00000000E+00  0.00000000E+00  0.00000000E+00
  0.00000000E+00  0.00000000E+00  0.00000000E+00
  0.00000000E+00  0.00000000E+00  0.00000000E+00
  0.00000000E+00  0.00000000E+00  0.00000000E+00
  0.00000000E+00  0.00000000E+00  0.00000000E+00
  0.00000000E+00  0.00000000E+00  0.00000000E+00
  0.00000000E+00  0.00000000E+00  0.00000000E+00
  0.00000000E+00  0.00000000E+00  0.00000000E+00
  0.00000000E+00  0.00000000E+00  0.00000000E+00
  0.00000000E+00  0.00000000E+00  0.00000000E+00
  0.00000000E+00  0.00000000E+00  0.00000000E+00
  0.00000000E+00  0.00000000E+00  0.00000000E+00
  0.00000000E+00  0.00000000E+00  0.00000000E+00
  0.00000000E+00  0.00000000E+00  0.00000000E+00
  0.00000000E+00  0.00000000E+00  0.00000000E+00
  0.00000000E+00  0.00000000E+00  0.00000000E+00
  0.00000000E+00  0.00000000E+00  0.00000000E+00
  0.00000000E+00  0.00000000E+00  0.00000000E+00
  0.00000000E+00  0.00000000E+00  0.00000000E+00
  0.00000000E+00  0.00000000E+00  0.00000000E+00
  0.00000000E+00  0.00000000E+00  0.00000000E+00
  0.00000000E+00  0.00000000E+00  0.00000000E+00
  0.00000000E+00  0.00000000E+00  0.00000000E+00
  0.00000000E+00  0.00000000E+00  0.00000000E+00
  0.00000000E+00  0.00000000E+00  0.00000000E+00
  0.00000000E+00  0.00000000E+00  0.00000000E+00
  0.00000000E+00  0.00000000E+00  0.00000000E+00
  0.00000000E+00  0.00000000E+00  0.00000000E+00
  0.00000000E+00  0.00000000E+00  0.00000000E+00
  0.00000000E+00  0.00000000E+00  0.00000000E+00
  0.00000000E+00  0.00000000E+00  0.00000000E+00
  0.00000000E+00  0.00000000E+00  0.00000000E+00
  0.00000000E+00  0.00000000E+00  0.00000000E+00
  0.00000000E+00  0.00000000E+00  0.00000000E+00
  0.00000000E+00  0.00000000E+00  0.00000000E+00
  0.00000000E+00  0.00000000E+00  0.00000000E+00
  0.00000000E+00  0.00000000E+00  0.00000000E+00
  0.00000000E+00  0.00000000E+00  0.00000000E+00
  0.00000000E+00  0.00000000E+00  0.00000000E+00
  0.00000000E+00  0.00000000E+00  0.00000000E+00
  0.00000000E+00  0.00000000E+00  0.00000000E+00
  0.00000000E+00  0.00000000E+00  0.00000000E+00
  0.00000000E+00  0.00000000E+00  0.00000000E+00
  0.00000000E+00  0.00000000E+00  0.00000000E+00
  0.00000000E+00  0.00000000E+00  0.00000000E+00
  0.00000000E+00  0.00000000E+00  0.00000000E+00
  0.00000000E+00  0.00000000E+00  0.00000000E+00
  0.00000000E+00  0.00000000E+00  0.00000000E+00
  0.00000000E+00  0.00000000E+00  0.00000000E+00
  0.00000000E+00  0.00000000E+00  0.00000000E+00
  0.00000000E+00  0.00000000E+00  0.00000000E+00
  0.00000000E+00  0.00000000E+00  0.00000000E+00
  0.00000000E+00  0.00000000E+00  0.00000000E+00
