Al36, -113.08742761 <s> Ag </s>
  1.00000000000000
    22.63681887597911     0.00000000000000     0.00000000000000
     0.00000000000000    22.63681887597911     0.00000000000000
     0.00000000000000     0.00000000000000    22.63681887597911
  Ag    
  36    
Direct
     0.54948982141782      0.44937997809711      0.50795720338802   
     0.52673790985884      0.32397211547721      0.49699483588648   
     0.52632072215883      0.51865225093611      0.60290563716920   
     0.57167716347956      0.48756434289202      0.38893092617007   
     0.62899547041665      0.38344953418047      0.44129958882866   
     0.68794219474056      0.45358632133689      0.36852337730877   
     0.60979969689020      0.52847365117855      0.69589653188549   
     0.68872189014712      0.62606884550758      0.49085286819177   
     0.43404403117294      0.31537082806469      0.42455406318921   
     0.66670723360610      0.56976073458943      0.38676371094402   
     0.43241940082012      0.38968019990702      0.53446380715895   
     0.41496801824397      0.45993414247576      0.63620251994913   
     0.56166717144548      0.61702655937243      0.35311437319495   
     0.45548796820807      0.57642367094291      0.68653430821808   
     0.61970880125076      0.70309926580426      0.42002582365732   
     0.46814395383338      0.55479847525325      0.38412815263938   
     0.46760385720912      0.43219955273071      0.41392782842930   
     0.56853464699530      0.57686139761114      0.47719423792535   
     0.36243407430906      0.51233658161758      0.41063495261014   
     0.34873412405497      0.39305826896444      0.44454327938883   
     0.25176288575639      0.46608307210149      0.45238760321536   
     0.58674988345923      0.68190752834705      0.54207934091839   
     0.50146150837853      0.67643641182484      0.44748435003486   
     0.62395946560976      0.33915145143076      0.56223474718873   
     0.39814786370348      0.62142423472107      0.46853719549520   
     0.66345565225887      0.49615534464972      0.48780847469699   
     0.44493163753411      0.51393819659434      0.50880447078348   
     0.29589422387429      0.56941453652410      0.49794696553598   
     0.33696353937334      0.46487227655993      0.54614302124302   
     0.64734879430916      0.57251800196233      0.58515997454629   
     0.48029900232336      0.62366648813519      0.55951440700320   
     0.50590742759769      0.46541028297234      0.71639326669905   
     0.37323334724978      0.57332040397501      0.59387623983568   
     0.52189230631352      0.38903323864060      0.61940799227776   
     0.63394958869711      0.45164392264269      0.60304306916690   
     0.55956127675949      0.63238394496663      0.65359485093108   
