Al47, -149.47714999 <s> Ag </s>         
   1.00000000000000     
    23.4910704708139910    0.0000000000000000    0.0000000000000000
     0.0000000000000000   23.4910704708139910    0.0000000000000000
     0.0000000000000000    0.0000000000000000   23.4910704708139910
   Ag
    47
Direct
  0.2735223301183178  0.3986562914610762  0.6058091363459558
  0.3215016047365210  0.5078681029025148  0.5970843035682084
  0.3871738191627448  0.4128165129547144  0.6413359789319502
  0.2938923140059437  0.5686142232749366  0.4965555157990419
  0.4346067919458887  0.5210008791924530  0.6374902816854522
  0.2889748902911712  0.4487277706572486  0.4977513867224907
  0.3941695251730853  0.5974924760180961  0.5576018320893911
  0.3045215036798442  0.6242354444050490  0.3908726140631869
  0.3591083525791179  0.3581756137641526  0.5379838463735511
  0.5047510784398163  0.4276472487867861  0.6728595475709156
  0.5352203373295200  0.5472640683836484  0.6885092270125857
  0.3214198679647482  0.5018596921959325  0.3946358246944709
  0.3577514772786479  0.6807171612672388  0.4818028721874750
  0.4149437400809624  0.4806618257507953  0.5212920503552683
  0.5090352178547188  0.6054046038418729  0.5828056759340923
  0.4766444373467688  0.3732462514215716  0.5700540256907107
  0.6219994070112498  0.4679244036199369  0.6699470666190992
  0.3786787203653157  0.4039736560541510  0.4300771123606125
  0.4029807087819182  0.5774616800340732  0.4388061058949796
  0.4797157362462756  0.6616427872075292  0.4798960606358503
  0.6404036824496936  0.5645143411574077  0.7385657675746385
  0.3846196288315847  0.5741400143635540  0.3179499978566893
  0.5346358573256916  0.4849865970212853  0.5746759620625348
  0.4163955316015993  0.6802730799034353  0.3748134447371164
  0.4962225517900506  0.5937023309166101  0.3590561197052252
  0.4458738346910917  0.3133335004564691  0.4706511938742090
  0.5122007545546929  0.5406929857279402  0.4726924152901585
  0.5883280628002177  0.6833632710214589  0.5347163790860924
  0.6056168240916336  0.6350253865830551  0.6479103865034496
  0.4457761796961175  0.4848885967771582  0.3722373479024672
  0.6991809701683366  0.5525529808497940  0.6374555906140909
  0.5967841567427186  0.3832012813147529  0.5919660441305449
  0.5601914174054832  0.3224945879082176  0.4972962328761845
  0.6206240878268487  0.5677658124972167  0.5357657191594509
  0.5834641301207920  0.6267370521892761  0.4275496594924951
  0.4977377327822345  0.4191214420846422  0.4561131398722265
  0.5679811703143198  0.4972234264687818  0.3750024091254499
  0.6119028875921928  0.4559901578056132  0.4829976825288542
  0.6995049905857218  0.6557460009916508  0.5803390903384993
  0.7392212850322245  0.5561824069694371  0.5229063945788162
  0.6909031195588370  0.6546181335146688  0.4645415183341287
  0.6727204568940838  0.5464546264716872  0.4201094466588657
  0.6755190775855707  0.4449910853018085  0.3608152130741596
  0.6934308382029575  0.4526257170756040  0.5736099599417691
  0.6739265492066107  0.3565198425876854  0.4999546244604636
  0.5902904711778776  0.3739629938052050  0.3957092163019642
  0.7362559525005673  0.4535723793311858  0.4626973777945542
 
  0.00000000E+00  0.00000000E+00  0.00000000E+00
  0.00000000E+00  0.00000000E+00  0.00000000E+00
  0.00000000E+00  0.00000000E+00  0.00000000E+00
  0.00000000E+00  0.00000000E+00  0.00000000E+00
  0.00000000E+00  0.00000000E+00  0.00000000E+00
  0.00000000E+00  0.00000000E+00  0.00000000E+00
  0.00000000E+00  0.00000000E+00  0.00000000E+00
  0.00000000E+00  0.00000000E+00  0.00000000E+00
  0.00000000E+00  0.00000000E+00  0.00000000E+00
  0.00000000E+00  0.00000000E+00  0.00000000E+00
  0.00000000E+00  0.00000000E+00  0.00000000E+00
  0.00000000E+00  0.00000000E+00  0.00000000E+00
  0.00000000E+00  0.00000000E+00  0.00000000E+00
  0.00000000E+00  0.00000000E+00  0.00000000E+00
  0.00000000E+00  0.00000000E+00  0.00000000E+00
  0.00000000E+00  0.00000000E+00  0.00000000E+00
  0.00000000E+00  0.00000000E+00  0.00000000E+00
  0.00000000E+00  0.00000000E+00  0.00000000E+00
  0.00000000E+00  0.00000000E+00  0.00000000E+00
  0.00000000E+00  0.00000000E+00  0.00000000E+00
  0.00000000E+00  0.00000000E+00  0.00000000E+00
  0.00000000E+00  0.00000000E+00  0.00000000E+00
  0.00000000E+00  0.00000000E+00  0.00000000E+00
  0.00000000E+00  0.00000000E+00  0.00000000E+00
  0.00000000E+00  0.00000000E+00  0.00000000E+00
  0.00000000E+00  0.00000000E+00  0.00000000E+00
  0.00000000E+00  0.00000000E+00  0.00000000E+00
  0.00000000E+00  0.00000000E+00  0.00000000E+00
  0.00000000E+00  0.00000000E+00  0.00000000E+00
  0.00000000E+00  0.00000000E+00  0.00000000E+00
  0.00000000E+00  0.00000000E+00  0.00000000E+00
  0.00000000E+00  0.00000000E+00  0.00000000E+00
  0.00000000E+00  0.00000000E+00  0.00000000E+00
  0.00000000E+00  0.00000000E+00  0.00000000E+00
  0.00000000E+00  0.00000000E+00  0.00000000E+00
  0.00000000E+00  0.00000000E+00  0.00000000E+00
  0.00000000E+00  0.00000000E+00  0.00000000E+00
  0.00000000E+00  0.00000000E+00  0.00000000E+00
  0.00000000E+00  0.00000000E+00  0.00000000E+00
  0.00000000E+00  0.00000000E+00  0.00000000E+00
  0.00000000E+00  0.00000000E+00  0.00000000E+00
  0.00000000E+00  0.00000000E+00  0.00000000E+00
  0.00000000E+00  0.00000000E+00  0.00000000E+00
  0.00000000E+00  0.00000000E+00  0.00000000E+00
  0.00000000E+00  0.00000000E+00  0.00000000E+00
  0.00000000E+00  0.00000000E+00  0.00000000E+00
  0.00000000E+00  0.00000000E+00  0.00000000E+00
