Ag10, -17.76368542 <s> Ag </s>          
   1.00000000000000     
    19.2304053669245896    0.0000000000000000    0.0000000000000000
     0.0000000000000000   19.2304053669245896    0.0000000000000000
     0.0000000000000000    0.0000000000000000   19.2304053669245896
   Ag
    10
Direct
  0.5459650584114897  0.4471103164072900  0.4168026581075992
  0.4903784349639579  0.5816621199020915  0.4196051812033375
  0.4066651512914419  0.4738146652729895  0.4494799112398979
  0.6284547615394516  0.5529265939941723  0.4715730797204287
  0.5821543908751394  0.6844114627554774  0.4735565546712621
  0.4812246129844979  0.3604242535393567  0.5123800571402768
  0.3448567358713106  0.3741053204122693  0.5389106230505334
  0.5131442455593103  0.5894499290809918  0.5612941291542413
  0.5742535328046614  0.4575320150873523  0.5651758285244810
  0.4329030756987393  0.4785633235480091  0.5912219771879421
 
  0.00000000E+00  0.00000000E+00  0.00000000E+00
  0.00000000E+00  0.00000000E+00  0.00000000E+00
  0.00000000E+00  0.00000000E+00  0.00000000E+00
  0.00000000E+00  0.00000000E+00  0.00000000E+00
  0.00000000E+00  0.00000000E+00  0.00000000E+00
  0.00000000E+00  0.00000000E+00  0.00000000E+00
  0.00000000E+00  0.00000000E+00  0.00000000E+00
  0.00000000E+00  0.00000000E+00  0.00000000E+00
  0.00000000E+00  0.00000000E+00  0.00000000E+00
  0.00000000E+00  0.00000000E+00  0.00000000E+00
