Al51, -162.71637305 <s> Ag </s>
  1.00000000000000
    23.61624467711713     0.00000000000000     0.00000000000000
     0.00000000000000    23.61624467711713     0.00000000000000
     0.00000000000000     0.00000000000000    23.61624467711713
  Ag    
  51    
Direct
     0.70871971089688      0.39812031357875      0.43857053890810   
     0.63120736902126      0.31455197295401      0.46279633759413   
     0.67552567560045      0.49731248112451      0.38250215949332   
     0.72909825028787      0.49018219717872      0.51024833637891   
     0.52763792061604      0.31599210719187      0.41004580681722   
     0.70900931907425      0.58867981762439      0.44958336369471   
     0.59426389620321      0.31044168190440      0.57396599005837   
     0.59039899704797      0.42165367815474      0.41593701931173   
     0.64225767340731      0.41145992447070      0.53327006740897   
     0.43307275611364      0.31907474232745      0.33517446888268   
     0.56595963729461      0.50987921516695      0.33816472714472   
     0.61022647319292      0.51920003841028      0.48617201899182   
     0.48743317433371      0.28573348120932      0.52677519567478   
     0.68417762281120      0.48805100940322      0.61798237317127   
     0.50050950205450      0.41338674175679      0.34173775510774   
     0.62183098105191      0.60799758884483      0.37187101655657   
     0.62457184671117      0.39074528513797      0.65372179785730   
     0.68256503013736      0.59776929201317      0.56057981522505   
     0.61041740010673      0.64917024522232      0.48121352160931   
     0.52197450756431      0.39848244886709      0.50723865085180   
     0.50206814108559      0.37025323255084      0.62152496207806   
     0.46620609230183      0.47925110032725      0.44397772510333   
     0.56191203236679      0.47509280087707      0.59302839844952   
     0.38808627948825      0.43164898456602      0.36594435497354   
     0.45171170470935      0.53159832200214      0.33817464422805   
     0.52198533247679      0.57851651624703      0.43126397962399   
     0.53766707982840      0.44491186146594      0.70672491261044   
     0.42047009481562      0.34772497967866      0.44582956468142   
     0.61263967219718      0.57337543052226      0.65338513528034   
     0.53722653178553      0.58065476143093      0.55519764193975   
     0.60180645448565      0.67769094966690      0.59200213765476   
     0.53597072352199      0.68909704862697      0.39875838346685   
     0.42723282205140      0.63579454785252      0.39488344730364   
     0.35587410252459      0.53364033249536      0.41206198309232   
     0.35474795197453      0.43670287875119      0.47876347419198   
     0.40070157938513      0.35889408602817      0.55983360687320   
     0.53984108617887      0.65298224705510      0.69173483719981   
     0.44813245081557      0.47917422194870      0.55960632371310   
     0.49969080533709      0.69014970313523      0.51192234526539   
     0.42201757840607      0.58767005117415      0.50623579645152   
     0.42553815265091      0.44743367705874      0.67422498667741   
     0.49391304775218      0.54526132828375      0.66548498616157   
     0.51176031729544      0.74713866811553      0.62500170433408   
     0.45144187933636      0.64156623612846      0.61281221252943   
     0.38309673249077      0.70536650226721      0.47541375823291   
     0.30231437620479      0.62550883860107      0.45864984255934   
     0.31707265777868      0.53366643759895      0.53140214276081   
     0.33462557375501      0.44116997851185      0.60135549961208   
     0.40424312088808      0.74447175370486      0.58012281786004   
     0.37846189652471      0.55003861083168      0.63451444201097   
     0.33526973225161      0.64353178904502      0.57559314274174   
