Ag13, -899.0 <s> Ag </s>                
   1.00000000000000     
    21.1511500000000012    0.0000000000000000    0.0000000000000000
     0.0000000000000000   21.1511500000000012    0.0000000000000000
     0.0000000000000000    0.0000000000000000   21.1511500000000012
   Ag
    13
Direct
  0.5000000000000000  0.6277405238788577  0.6186814778792371
  0.4339271085294183  0.4327572481151645  0.5132643879478103
  0.4339271085294183  0.5672427518848354  0.5132643879478103
  0.4320681369295210  0.5000000000000000  0.4003024719875188
  0.5000000000000000  0.6110652810245469  0.3968294779203081
  0.5660728914705817  0.5672427518848354  0.5132643879478103
  0.5660728914705817  0.4327572481151645  0.5132643879478103
  0.5679318630704790  0.5000000000000000  0.4003024719875188
  0.5000000000000000  0.5000000000000000  0.6106702626645287
  0.5000000000000000  0.3889347189754529  0.3968294779203081
  0.5000000000000000  0.3164941059314282  0.5023226649850516
  0.5000000000000000  0.6835058940685717  0.5023226649850516
  0.5000000000000000  0.3722594761211421  0.6186814778792371
 
  0.00000000E+00  0.00000000E+00  0.00000000E+00
  0.00000000E+00  0.00000000E+00  0.00000000E+00
  0.00000000E+00  0.00000000E+00  0.00000000E+00
  0.00000000E+00  0.00000000E+00  0.00000000E+00
  0.00000000E+00  0.00000000E+00  0.00000000E+00
  0.00000000E+00  0.00000000E+00  0.00000000E+00
  0.00000000E+00  0.00000000E+00  0.00000000E+00
  0.00000000E+00  0.00000000E+00  0.00000000E+00
  0.00000000E+00  0.00000000E+00  0.00000000E+00
  0.00000000E+00  0.00000000E+00  0.00000000E+00
  0.00000000E+00  0.00000000E+00  0.00000000E+00
  0.00000000E+00  0.00000000E+00  0.00000000E+00
  0.00000000E+00  0.00000000E+00  0.00000000E+00
