Pt6, -22.12996103 <s> Ag </s>           
   1.00000000000000     
    18.3860229237059016    0.0000000000000000    0.0000000000000000
     0.0000000000000000   18.3860229237059016    0.0000000000000000
     0.0000000000000000    0.0000000000000000   18.3860229237059016
   Ag
     6
Direct
  0.6384535483419227  0.5301061531540023  0.5568936239202779
  0.6819978299085440  0.4507860019662107  0.4408092342757090
  0.5376905655363369  0.4580521311122222  0.4743117599521713
  0.4963254367366277  0.5694453405309858  0.5696624722422339
  0.3539878349629242  0.6111691828234465  0.5707268855982118
  0.3940767085565946  0.4895219467345587  0.4974147864662029
 
  0.00000000E+00  0.00000000E+00  0.00000000E+00
  0.00000000E+00  0.00000000E+00  0.00000000E+00
  0.00000000E+00  0.00000000E+00  0.00000000E+00
  0.00000000E+00  0.00000000E+00  0.00000000E+00
  0.00000000E+00  0.00000000E+00  0.00000000E+00
  0.00000000E+00  0.00000000E+00  0.00000000E+00
