Pt13, -57.53340109 <s> Cu </s>
  1.00000000000000
    18.25708921380717     0.00000000000000     0.00000000000000
     0.00000000000000    18.25708921380717     0.00000000000000
     0.00000000000000     0.00000000000000    18.25708921380717
  Cu    
  13    
Direct
     0.49251914393887      0.49387684955431      0.34476296290880   
     0.58860658371154      0.39971129301196      0.52514156388801   
     0.33141014620034      0.32573116000524      0.57247805430616   
     0.48314349612887      0.58631004457230      0.44500039065324   
     0.38966275019946      0.48759171734027      0.43323367537546   
     0.39444430628269      0.56488141311757      0.53412560588191   
     0.40857280537194      0.39728158698597      0.34594313009860   
     0.58921483259529      0.49489018675733      0.44320294143384   
     0.38142212508977      0.35230874437889      0.46320577773549   
     0.57644689106759      0.58813792390868      0.35889040601183   
     0.49215306801870      0.48076992628835      0.53695559540519   
     0.37303845611635      0.44107054875488      0.56152495350409   
     0.50003069139684      0.39073620108284      0.43620372874687   
