Ag10, -17.76952834 <s> Pd </s>          
   1.00000000000000     
    18.3293826352735785    0.0000000000000000    0.0000000000000000
     0.0000000000000000   18.3293826352735785    0.0000000000000000
     0.0000000000000000    0.0000000000000000   18.3293826352735785
   Pd
    10
Direct
  0.4564668880855675  0.4221140766874094  0.4074079238620343
  0.3668909415432536  0.3370574501003087  0.4761171747446425
  0.5370581351231860  0.5396263517718134  0.3757992244833501
  0.4707633088201018  0.5463196184427453  0.5109072521916659
  0.3972795273411540  0.5529453422759488  0.3869862688125428
  0.3463860070305304  0.4741898882544253  0.4973219462632388
  0.5823167138225305  0.4411265363405546  0.4777575044108091
  0.6095439365611225  0.5798599503877784  0.4963386605078362
  0.4619521274995749  0.4042433756786608  0.5572458977370355
  0.5639250545433547  0.4951000504307239  0.6067007873572213
 
  0.00000000E+00  0.00000000E+00  0.00000000E+00
  0.00000000E+00  0.00000000E+00  0.00000000E+00
  0.00000000E+00  0.00000000E+00  0.00000000E+00
  0.00000000E+00  0.00000000E+00  0.00000000E+00
  0.00000000E+00  0.00000000E+00  0.00000000E+00
  0.00000000E+00  0.00000000E+00  0.00000000E+00
  0.00000000E+00  0.00000000E+00  0.00000000E+00
  0.00000000E+00  0.00000000E+00  0.00000000E+00
  0.00000000E+00  0.00000000E+00  0.00000000E+00
  0.00000000E+00  0.00000000E+00  0.00000000E+00
