Ba13, -15.29844144 <s> Ag </s>          
   1.00000000000000     
    23.3455198747245802    0.0000000000000000    0.0000000000000000
     0.0000000000000000   23.3455198747245802    0.0000000000000000
     0.0000000000000000    0.0000000000000000   23.3455198747245802
   Ag
    13
Direct
  0.4166903496347231  0.3360437125568426  0.2811125949490058
  0.3363649091337475  0.2500627725441456  0.2671395510220280
  0.3148510276176091  0.3598794430595768  0.2145386353433665
  0.3649805649033095  0.4406847337780754  0.2943578861842973
  0.3970931555851870  0.2664304544494905  0.3781390177770799
  0.2488621015011831  0.4417124246368125  0.2820141006628142
  0.3003992072234152  0.3456631307163402  0.3302007711961928
  0.4107737999393837  0.3860821858490401  0.3916047114034086
  0.2802462845950187  0.2414655877585253  0.3782073902714028
  0.3036628648145633  0.4452501051391154  0.3994361367361394
  0.3155907380073345  0.3288767107901143  0.4491778909346225
  0.4275440317187666  0.3122267207537739  0.4847023330671757
  0.3682447502413453  0.4211551093783478  0.4983525487062139
 
  0.00000000E+00  0.00000000E+00  0.00000000E+00
  0.00000000E+00  0.00000000E+00  0.00000000E+00
  0.00000000E+00  0.00000000E+00  0.00000000E+00
  0.00000000E+00  0.00000000E+00  0.00000000E+00
  0.00000000E+00  0.00000000E+00  0.00000000E+00
  0.00000000E+00  0.00000000E+00  0.00000000E+00
  0.00000000E+00  0.00000000E+00  0.00000000E+00
  0.00000000E+00  0.00000000E+00  0.00000000E+00
  0.00000000E+00  0.00000000E+00  0.00000000E+00
  0.00000000E+00  0.00000000E+00  0.00000000E+00
  0.00000000E+00  0.00000000E+00  0.00000000E+00
  0.00000000E+00  0.00000000E+00  0.00000000E+00
  0.00000000E+00  0.00000000E+00  0.00000000E+00
