Ag12, -928.0 <s> Ni </s>                
   1.00000000000000     
    19.8437279999999987    0.0000000000000000    0.0000000000000000
     0.0000000000000000   19.8437279999999987    0.0000000000000000
     0.0000000000000000    0.0000000000000000   19.8437279999999987
   Ni
    12
Direct
  0.5103463009744313  0.6156728073056904  0.5000000000000000
  0.5512184953825541  0.5226662925462379  0.5609074111417410
  0.4615032010929832  0.5867614184705309  0.6057232471086839
  0.5384967989070171  0.4132385815294690  0.3942767528913161
  0.4615032010929832  0.5867614184705309  0.3942767528913161
  0.4487815046174534  0.4773337074537758  0.4390925888582588
  0.4896536990255684  0.3843271926943096  0.5000000000000000
  0.5384967989070171  0.4132385815294690  0.6057232471086839
  0.4080692892163491  0.5704117472658689  0.5000000000000000
  0.4487815046174534  0.4773337074537758  0.5609074111417410
  0.5512184953825541  0.5226662925462379  0.4390925888582588
  0.5919307107836509  0.4295882527341314  0.5000000000000000
 
  0.00000000E+00  0.00000000E+00  0.00000000E+00
  0.00000000E+00  0.00000000E+00  0.00000000E+00
  0.00000000E+00  0.00000000E+00  0.00000000E+00
  0.00000000E+00  0.00000000E+00  0.00000000E+00
  0.00000000E+00  0.00000000E+00  0.00000000E+00
  0.00000000E+00  0.00000000E+00  0.00000000E+00
  0.00000000E+00  0.00000000E+00  0.00000000E+00
  0.00000000E+00  0.00000000E+00  0.00000000E+00
  0.00000000E+00  0.00000000E+00  0.00000000E+00
  0.00000000E+00  0.00000000E+00  0.00000000E+00
  0.00000000E+00  0.00000000E+00  0.00000000E+00
  0.00000000E+00  0.00000000E+00  0.00000000E+00
