Pt12, -52.32934922 <s> Ag </s>          
   1.00000000000000     
    18.8285375499107808    0.0000000000000000    0.0000000000000000
     0.0000000000000000   18.8285375499107808    0.0000000000000000
     0.0000000000000000    0.0000000000000000   18.8285375499107808
   Ag
    12
Direct
  0.6405986630622470  0.5467050670184405  0.5028821359865465
  0.5763927987617511  0.6048811900852989  0.6364147098644487
  0.5826069845608681  0.6766616187384130  0.5017992561126645
  0.6736735051351821  0.4072619674020861  0.5123223251776362
  0.5674529898577413  0.4613941366956258  0.6014089952839692
  0.4500406569458491  0.5262678304400712  0.6603828496812086
  0.4852192899431709  0.5644652799049888  0.5235991424650280
  0.5413037249219221  0.4417883983733284  0.4542272813782841
  0.5477236814322257  0.5790998699784985  0.3886285926779863
  0.3956311373186640  0.4548590454865538  0.4887701105625196
  0.3226648876428522  0.4875604492131509  0.6074953141289042
  0.4466643159127561  0.4775035885518478  0.3513374427689646
 
  0.00000000E+00  0.00000000E+00  0.00000000E+00
  0.00000000E+00  0.00000000E+00  0.00000000E+00
  0.00000000E+00  0.00000000E+00  0.00000000E+00
  0.00000000E+00  0.00000000E+00  0.00000000E+00
  0.00000000E+00  0.00000000E+00  0.00000000E+00
  0.00000000E+00  0.00000000E+00  0.00000000E+00
  0.00000000E+00  0.00000000E+00  0.00000000E+00
  0.00000000E+00  0.00000000E+00  0.00000000E+00
  0.00000000E+00  0.00000000E+00  0.00000000E+00
  0.00000000E+00  0.00000000E+00  0.00000000E+00
  0.00000000E+00  0.00000000E+00  0.00000000E+00
  0.00000000E+00  0.00000000E+00  0.00000000E+00
