Pt12, -52.32934922 <s> Ag </s>          
   1.00000000000000     
    18.8285375499107808    0.0000000000000000    0.0000000000000000
     0.0000000000000000   18.8285375499107808    0.0000000000000000
     0.0000000000000000    0.0000000000000000   18.8285375499107808
   Ag
    12
Direct
  0.6406391456992810  0.5466560057364825  0.5028471725584948
  0.5763982212800620  0.6049175333420321  0.6364461324335372
  0.5826388740853972  0.6766978573077620  0.5018030949226838
  0.6736756037703497  0.4072571464644361  0.5123555604744828
  0.5674618267852150  0.4614037657969819  0.6014460378151683
  0.4500430222239398  0.5262956522203920  0.6604132178335507
  0.4851587556285065  0.5644580247381111  0.5236045906337702
  0.5412539925564459  0.4417632860220012  0.4542037763997497
  0.5477098060344103  0.5791208053461140  0.3885904397310482
  0.3955914956649483  0.4548892020048242  0.4887027036409485
  0.3226949375839201  0.4874917477497937  0.6075312637687833
  0.4467069541827685  0.4774974151593798  0.3513241658759432
 
  0.00000000E+00  0.00000000E+00  0.00000000E+00
  0.00000000E+00  0.00000000E+00  0.00000000E+00
  0.00000000E+00  0.00000000E+00  0.00000000E+00
  0.00000000E+00  0.00000000E+00  0.00000000E+00
  0.00000000E+00  0.00000000E+00  0.00000000E+00
  0.00000000E+00  0.00000000E+00  0.00000000E+00
  0.00000000E+00  0.00000000E+00  0.00000000E+00
  0.00000000E+00  0.00000000E+00  0.00000000E+00
  0.00000000E+00  0.00000000E+00  0.00000000E+00
  0.00000000E+00  0.00000000E+00  0.00000000E+00
  0.00000000E+00  0.00000000E+00  0.00000000E+00
  0.00000000E+00  0.00000000E+00  0.00000000E+00
