Pt50, -252.2925854 <s> Ag </s>          
   1.00000000000000     
    24.0028726727537212    0.0000000000000000    0.0000000000000000
     0.0000000000000000   24.0028726727537212    0.0000000000000000
     0.0000000000000000    0.0000000000000000   24.0028726727537212
   Ag
    50
Direct
  0.4778067787246892  0.5712728223108606  0.7765684299077867
  0.4968732371819108  0.6558574004671541  0.6933396300400529
  0.5115876459262431  0.4290325663773810  0.7707363882207834
  0.4033095735363075  0.5821578962660676  0.6844720639053610
  0.4085392775762036  0.4788973870510508  0.7386485774200736
  0.6117084229021684  0.4831873931737763  0.7493063634925519
  0.5861709002932249  0.5935521205617706  0.7334137190804438
  0.4078499110339519  0.6791305942827219  0.6202275007942194
  0.5163087239094064  0.7054436216391070  0.5791934488913066
  0.5100839126710225  0.5075359263814689  0.6876728592432766
  0.4588421070276180  0.3948768732061863  0.6718885457244035
  0.4907186437175807  0.5830645627860072  0.5993770707659065
  0.6149452227887791  0.5258143552817763  0.6380390706405310
  0.4085781631440690  0.4849237313969696  0.6182549383906244
  0.5808046935340155  0.4080944359362079  0.6650989780024531
  0.3713415406580901  0.5796467613443390  0.5655728292057260
  0.5969343329998007  0.6443741403362995  0.6313408952309475
  0.6038475418371513  0.3854785314419533  0.5433590456630815
  0.4375798866676616  0.6547099366992399  0.5095569682420430
  0.4265267987300233  0.3848582468153858  0.5559706669625677
  0.5192524867741317  0.4595177000848144  0.5798732502076355
  0.5213553512353420  0.3289326380382652  0.6012702825684312
  0.6734716750524602  0.5960018181303327  0.5628808784441536
  0.4743126145346653  0.5312731795813500  0.4969947069426052
  0.6266786000602661  0.7010470525419172  0.5260090372257652
  0.5593366638087084  0.6122075980749847  0.5068936419618136
  0.5272994880949734  0.7130087614584766  0.4597487712433570
  0.5086000421591732  0.5851973148769763  0.3041591031761890
  0.3667685156527244  0.4743608338697554  0.5078013125026141
  0.7295198459806639  0.5191267959276196  0.4962051039381343
  0.6117067110576138  0.5062424232838506  0.5229382400026653
  0.5390782444805612  0.4376011499269931  0.4590473399990823
  0.3732394665873591  0.5743931558541062  0.4457508473489161
  0.5996122056822548  0.3446057062681657  0.4191689314489988
  0.5051637589955071  0.3303926289187574  0.4862575955904426
  0.5710069706462183  0.5397693027563386  0.4124832419854215
  0.4655757570116983  0.4981041796423957  0.3846771097611101
  0.6644991338161857  0.6073045212560795  0.4482223336117213
  0.4728674771258275  0.6198076219551496  0.4065492663496969
  0.5832384242954671  0.6487249959913060  0.3760823140095833
  0.6695989605433040  0.4282798599784111  0.4564236762118203
  0.4232201417574787  0.3994666467775710  0.4380773392075397
  0.3468534804249585  0.4740396879154916  0.3901805015567698
  0.6980660775025245  0.5152702681303140  0.3848976627238490
  0.3937024831466179  0.5638857867931826  0.3268198388626283
  0.6203237756387446  0.5528388966241286  0.3091692643261439
  0.6153399731684451  0.4394456026177098  0.3516175310222847
  0.5081312575901613  0.3858261643158646  0.3577561100341954
  0.5291733786252351  0.4741773263900868  0.2830354422910862
  0.4165270271802121  0.4411183817533384  0.3008486391106737
 
  0.00000000E+00  0.00000000E+00  0.00000000E+00
  0.00000000E+00  0.00000000E+00  0.00000000E+00
  0.00000000E+00  0.00000000E+00  0.00000000E+00
  0.00000000E+00  0.00000000E+00  0.00000000E+00
  0.00000000E+00  0.00000000E+00  0.00000000E+00
  0.00000000E+00  0.00000000E+00  0.00000000E+00
  0.00000000E+00  0.00000000E+00  0.00000000E+00
  0.00000000E+00  0.00000000E+00  0.00000000E+00
  0.00000000E+00  0.00000000E+00  0.00000000E+00
  0.00000000E+00  0.00000000E+00  0.00000000E+00
  0.00000000E+00  0.00000000E+00  0.00000000E+00
  0.00000000E+00  0.00000000E+00  0.00000000E+00
  0.00000000E+00  0.00000000E+00  0.00000000E+00
  0.00000000E+00  0.00000000E+00  0.00000000E+00
  0.00000000E+00  0.00000000E+00  0.00000000E+00
  0.00000000E+00  0.00000000E+00  0.00000000E+00
  0.00000000E+00  0.00000000E+00  0.00000000E+00
  0.00000000E+00  0.00000000E+00  0.00000000E+00
  0.00000000E+00  0.00000000E+00  0.00000000E+00
  0.00000000E+00  0.00000000E+00  0.00000000E+00
  0.00000000E+00  0.00000000E+00  0.00000000E+00
  0.00000000E+00  0.00000000E+00  0.00000000E+00
  0.00000000E+00  0.00000000E+00  0.00000000E+00
  0.00000000E+00  0.00000000E+00  0.00000000E+00
  0.00000000E+00  0.00000000E+00  0.00000000E+00
  0.00000000E+00  0.00000000E+00  0.00000000E+00
  0.00000000E+00  0.00000000E+00  0.00000000E+00
  0.00000000E+00  0.00000000E+00  0.00000000E+00
  0.00000000E+00  0.00000000E+00  0.00000000E+00
  0.00000000E+00  0.00000000E+00  0.00000000E+00
  0.00000000E+00  0.00000000E+00  0.00000000E+00
  0.00000000E+00  0.00000000E+00  0.00000000E+00
  0.00000000E+00  0.00000000E+00  0.00000000E+00
  0.00000000E+00  0.00000000E+00  0.00000000E+00
  0.00000000E+00  0.00000000E+00  0.00000000E+00
  0.00000000E+00  0.00000000E+00  0.00000000E+00
  0.00000000E+00  0.00000000E+00  0.00000000E+00
  0.00000000E+00  0.00000000E+00  0.00000000E+00
  0.00000000E+00  0.00000000E+00  0.00000000E+00
  0.00000000E+00  0.00000000E+00  0.00000000E+00
  0.00000000E+00  0.00000000E+00  0.00000000E+00
  0.00000000E+00  0.00000000E+00  0.00000000E+00
  0.00000000E+00  0.00000000E+00  0.00000000E+00
  0.00000000E+00  0.00000000E+00  0.00000000E+00
  0.00000000E+00  0.00000000E+00  0.00000000E+00
  0.00000000E+00  0.00000000E+00  0.00000000E+00
  0.00000000E+00  0.00000000E+00  0.00000000E+00
  0.00000000E+00  0.00000000E+00  0.00000000E+00
  0.00000000E+00  0.00000000E+00  0.00000000E+00
  0.00000000E+00  0.00000000E+00  0.00000000E+00
