Ag13, -897.0 <s> Ni </s>                
   1.00000000000000     
    19.9474319999999992    0.0000000000000000    0.0000000000000000
     0.0000000000000000   19.9474319999999992    0.0000000000000000
     0.0000000000000000    0.0000000000000000   19.9474319999999992
   Ni
    13
Direct
  0.5000000000000000  0.5867448659665278  0.5974568616637191
  0.5769054221500014  0.5778630564415195  0.4821194350029266
  0.6146541428102168  0.5000000000000000  0.6101424313269257
  0.3735894500627379  0.5000000000000000  0.3710535158370377
  0.3853458571897831  0.5000000000000000  0.6101424313269257
  0.4230945778499986  0.4221369435584805  0.4821194350029266
  0.5000000000000000  0.4279914347380179  0.3567304783455573
  0.6264105499372622  0.5000000000000000  0.3710535158370377
  0.5000000000000000  0.4132551340334724  0.5974568616637191
  0.5769054221500014  0.4221369435584805  0.4821194350029266
  0.4230945778499986  0.5778630564415195  0.4821194350029266
  0.5000000000000000  0.5720085652619820  0.3567304783455573
  0.5000000000000000  0.5000000000000000  0.7007556781205841
 
  0.00000000E+00  0.00000000E+00  0.00000000E+00
  0.00000000E+00  0.00000000E+00  0.00000000E+00
  0.00000000E+00  0.00000000E+00  0.00000000E+00
  0.00000000E+00  0.00000000E+00  0.00000000E+00
  0.00000000E+00  0.00000000E+00  0.00000000E+00
  0.00000000E+00  0.00000000E+00  0.00000000E+00
  0.00000000E+00  0.00000000E+00  0.00000000E+00
  0.00000000E+00  0.00000000E+00  0.00000000E+00
  0.00000000E+00  0.00000000E+00  0.00000000E+00
  0.00000000E+00  0.00000000E+00  0.00000000E+00
  0.00000000E+00  0.00000000E+00  0.00000000E+00
  0.00000000E+00  0.00000000E+00  0.00000000E+00
  0.00000000E+00  0.00000000E+00  0.00000000E+00
