Pt13, -57.53340109 <s> Ni </s>          
   1.00000000000000     
    18.2570892138071699    0.0000000000000000    0.0000000000000000
     0.0000000000000000   18.2570892138071699    0.0000000000000000
     0.0000000000000000    0.0000000000000000   18.2570892138071699
   Ni
    13
Direct
  0.4856793355511991  0.4890449383498766  0.3464069225987404
  0.5047597978404483  0.3771846750977209  0.5288643908972036
  0.4033867805079874  0.3107564707388670  0.5648120171386992
  0.4426774897570829  0.5932710958030817  0.4124068593708377
  0.3789475409002133  0.4789182424661011  0.4223243514992791
  0.3781828554358295  0.5583780050237528  0.5205285103977541
  0.3887405056621615  0.3976293781202413  0.3272615081735140
  0.5875018823503571  0.4388586393749257  0.4446845623883426
  0.3712300065225422  0.3517259824104619  0.4507394043214939
  0.5673119248678066  0.5621854315534057  0.4085610805936346
  0.4875391580858908  0.5007320123585773  0.4895657845167660
  0.3898767216105612  0.4346831768313560  0.5479310394553121
  0.4843764873848194  0.3801624453439335  0.4061284567002704
 
  0.00000000E+00  0.00000000E+00  0.00000000E+00
  0.00000000E+00  0.00000000E+00  0.00000000E+00
  0.00000000E+00  0.00000000E+00  0.00000000E+00
  0.00000000E+00  0.00000000E+00  0.00000000E+00
  0.00000000E+00  0.00000000E+00  0.00000000E+00
  0.00000000E+00  0.00000000E+00  0.00000000E+00
  0.00000000E+00  0.00000000E+00  0.00000000E+00
  0.00000000E+00  0.00000000E+00  0.00000000E+00
  0.00000000E+00  0.00000000E+00  0.00000000E+00
  0.00000000E+00  0.00000000E+00  0.00000000E+00
  0.00000000E+00  0.00000000E+00  0.00000000E+00
  0.00000000E+00  0.00000000E+00  0.00000000E+00
  0.00000000E+00  0.00000000E+00  0.00000000E+00
