Pt13, -57.53340109 <s> Ni </s>          
   1.00000000000000     
    18.2570892138071699    0.0000000000000000    0.0000000000000000
     0.0000000000000000   18.2570892138071699    0.0000000000000000
     0.0000000000000000    0.0000000000000000   18.2570892138071699
   Ni
    13
Direct
  0.4998527811444314  0.5051852678951789  0.3247429957620277
  0.4989705172642686  0.3581134181146751  0.5342296776700017
  0.3856048368843463  0.2884557980316301  0.6074090240994774
  0.4371084847625338  0.6223262960673536  0.4060374100215952
  0.3599648971766614  0.4761355975473798  0.4180355666635549
  0.3735143162055584  0.5864407531058670  0.5349942494397262
  0.3808329913845142  0.3840670950182027  0.3059498175532530
  0.6169094621971267  0.4440896976024619  0.4186553459740472
  0.3625897710035690  0.3143983200228978  0.4559233740063769
  0.5956717461663356  0.5958877089115409  0.4081423876860655
  0.5058226771390795  0.5128152651746613  0.5047808678702501
  0.3534033663717234  0.4324535198845082  0.5698564945287458
  0.4999646387767460  0.3531617560959361  0.3814576767767339
 
  0.00000000E+00  0.00000000E+00  0.00000000E+00
  0.00000000E+00  0.00000000E+00  0.00000000E+00
  0.00000000E+00  0.00000000E+00  0.00000000E+00
  0.00000000E+00  0.00000000E+00  0.00000000E+00
  0.00000000E+00  0.00000000E+00  0.00000000E+00
  0.00000000E+00  0.00000000E+00  0.00000000E+00
  0.00000000E+00  0.00000000E+00  0.00000000E+00
  0.00000000E+00  0.00000000E+00  0.00000000E+00
  0.00000000E+00  0.00000000E+00  0.00000000E+00
  0.00000000E+00  0.00000000E+00  0.00000000E+00
  0.00000000E+00  0.00000000E+00  0.00000000E+00
  0.00000000E+00  0.00000000E+00  0.00000000E+00
  0.00000000E+00  0.00000000E+00  0.00000000E+00
