Co12, -948.0 <s> Pd </s>                
   1.00000000000000     
    17.7263780000000004    0.0000000000000000    0.0000000000000000
     0.0000000000000000   17.7263780000000004    0.0000000000000000
     0.0000000000000000    0.0000000000000000   17.7263780000000004
   Pd
    12
Direct
  0.4590718934155401  0.6608036346688255  0.5237553842094046
  0.4580204667010631  0.3610764394355608  0.5276253176955260
  0.4478495413547210  0.5108718050146297  0.5357768757292214
  0.5790355824222045  0.4381892537742925  0.4800077815445182
  0.5762986848915309  0.5883091346719233  0.4799749205950954
  0.3719877024463061  0.4382386261781917  0.4277232780068304
  0.3771626601631652  0.5879213195034053  0.4266701612068604
  0.5419776382051223  0.4358174067384016  0.6264582921956251
  0.5409569291562416  0.5879112267618265  0.6265692516220279
  0.4938948968748452  0.5146509757225738  0.3818690033161962
  0.4927060894691901  0.3633492810206601  0.3828064584061092
  0.6610379217395341  0.5128608896702317  0.5807632754725849
 
  0.00000000E+00  0.00000000E+00  0.00000000E+00
  0.00000000E+00  0.00000000E+00  0.00000000E+00
  0.00000000E+00  0.00000000E+00  0.00000000E+00
  0.00000000E+00  0.00000000E+00  0.00000000E+00
  0.00000000E+00  0.00000000E+00  0.00000000E+00
  0.00000000E+00  0.00000000E+00  0.00000000E+00
  0.00000000E+00  0.00000000E+00  0.00000000E+00
  0.00000000E+00  0.00000000E+00  0.00000000E+00
  0.00000000E+00  0.00000000E+00  0.00000000E+00
  0.00000000E+00  0.00000000E+00  0.00000000E+00
  0.00000000E+00  0.00000000E+00  0.00000000E+00
  0.00000000E+00  0.00000000E+00  0.00000000E+00
