Pt11, -46.93263774 <s> Cu </s>
  1.00000000000000
    18.69879673177583     0.00000000000000     0.00000000000000
     0.00000000000000    18.69879673177583     0.00000000000000
     0.00000000000000     0.00000000000000    18.69879673177583
  Cu    
  11    
Direct
     0.56091937745123      0.34236675770758      0.38940204369086   
     0.50843746701352      0.44967490720257      0.36832944187974   
     0.47854353140251      0.37940623843880      0.46796167022117   
     0.45454555318709      0.36730392165720      0.59117730198292   
     0.45366066258678      0.55660201389889      0.33144084860236   
     0.47874179911904      0.47932702259536      0.53939251513821   
     0.51042143541368      0.55301140811837      0.44243017878448   
     0.36944006740547      0.41827020990939      0.51760316933672   
     0.39842142607380      0.49360036075684      0.42120256836776   
     0.28444207465394      0.46421799653454      0.44560527671028   
     0.56217714453767      0.56443922267091      0.55114655556667   
