Pt9, -36.76808518 <s> Ag </s>           
   1.00000000000000     
    18.1141351370482511    0.0000000000000000    0.0000000000000000
     0.0000000000000000   18.1141351370482511    0.0000000000000000
     0.0000000000000000    0.0000000000000000   18.1141351370482511
   Ag
     9
Direct
  0.5875975120133988  0.3465467993215986  0.5708169747742213
  0.6578261991941566  0.4861290435550918  0.5713878749032634
  0.5025491688428283  0.4618586028302917  0.6174162937078452
  0.5488446506908758  0.4578624189113463  0.4707037479771980
  0.4692840498361961  0.4608069726111224  0.3465997120821593
  0.5718509934393877  0.6014550144075864  0.5333689028682003
  0.4487998184370180  0.5697617566453140  0.4451974326364819
  0.4189761340354064  0.5819245824641077  0.5960213698208844
  0.4606304069407372  0.7042036558121293  0.5145385050425414
 
  0.00000000E+00  0.00000000E+00  0.00000000E+00
  0.00000000E+00  0.00000000E+00  0.00000000E+00
  0.00000000E+00  0.00000000E+00  0.00000000E+00
  0.00000000E+00  0.00000000E+00  0.00000000E+00
  0.00000000E+00  0.00000000E+00  0.00000000E+00
  0.00000000E+00  0.00000000E+00  0.00000000E+00
  0.00000000E+00  0.00000000E+00  0.00000000E+00
  0.00000000E+00  0.00000000E+00  0.00000000E+00
  0.00000000E+00  0.00000000E+00  0.00000000E+00
