Pt15, -66.82817986 <s> Ag </s>          
   1.00000000000000     
    19.1184307839479608    0.0000000000000000    0.0000000000000000
     0.0000000000000000   19.1184307839479608    0.0000000000000000
     0.0000000000000000    0.0000000000000000   19.1184307839479608
   Ag
    15
Direct
  0.5133585725222126  0.4083794831226468  0.7080687915281438
  0.4578862758627542  0.4217943834522527  0.5743885742704221
  0.6025130492927577  0.4424255442927201  0.5962274109434246
  0.6808902046467690  0.4104008016270574  0.4766665632419966
  0.5011958317370440  0.5390755189553990  0.6558741284989313
  0.5385499736233591  0.4274134992329400  0.4559403404028262
  0.4047518596361663  0.4765999133290538  0.4523974423606916
  0.5246843114316644  0.6283919775954755  0.5428074837809999
  0.6378623373872200  0.5822913879342178  0.6258829474503135
  0.6260158856840549  0.5437305651826270  0.4884516878082871
  0.3934004165727815  0.6225636019742941  0.4833818577473941
  0.6220349588525720  0.4908932499310565  0.3551963391898695
  0.5089535606983618  0.5710220773204520  0.4028929028997629
  0.4066508035847432  0.6431636852353108  0.6242016402887007
  0.3706296474684408  0.5748207386707561  0.3523141336145870
 
  0.00000000E+00  0.00000000E+00  0.00000000E+00
  0.00000000E+00  0.00000000E+00  0.00000000E+00
  0.00000000E+00  0.00000000E+00  0.00000000E+00
  0.00000000E+00  0.00000000E+00  0.00000000E+00
  0.00000000E+00  0.00000000E+00  0.00000000E+00
  0.00000000E+00  0.00000000E+00  0.00000000E+00
  0.00000000E+00  0.00000000E+00  0.00000000E+00
  0.00000000E+00  0.00000000E+00  0.00000000E+00
  0.00000000E+00  0.00000000E+00  0.00000000E+00
  0.00000000E+00  0.00000000E+00  0.00000000E+00
  0.00000000E+00  0.00000000E+00  0.00000000E+00
  0.00000000E+00  0.00000000E+00  0.00000000E+00
  0.00000000E+00  0.00000000E+00  0.00000000E+00
  0.00000000E+00  0.00000000E+00  0.00000000E+00
  0.00000000E+00  0.00000000E+00  0.00000000E+00
