Pt45, -227.78792767 <s> Ag </s>
  1.00000000000000
    23.01064054745203     0.00000000000000     0.00000000000000
     0.00000000000000    23.01064054745203     0.00000000000000
     0.00000000000000     0.00000000000000    23.01064054745203
  Ag    
  45    
Direct
     0.57690276633889      0.54079844445669      0.47422014286814   
     0.64978386484793      0.56714335657187      0.36551480542203   
     0.40797992897804      0.56956671834298      0.63532224000916   
     0.60945930720246      0.56749420242774      0.66670631246454   
     0.64869900308115      0.35434645254850      0.58610501142140   
     0.44097223898876      0.35012920592613      0.43997074064989   
     0.67064317925956      0.54418584725500      0.56549992853804   
     0.52218210965514      0.67054478240240      0.37378662692159   
     0.41653204311472      0.67645037075993      0.58428882078912   
     0.34643613312040      0.56983734626069      0.46362123206228   
     0.38014037834695      0.45680933140416      0.44838165711342   
     0.53252474107847      0.55165361414992      0.35791354400932   
     0.46447316413335      0.57651211973134      0.47446329868379   
     0.56543994947324      0.28216714351603      0.62054875478593   
     0.45909691493977      0.61732582934994      0.29007608156604   
     0.57941046237539      0.45312868996165      0.57544250557110   
     0.66648434698788      0.61948124496868      0.47290431193365   
     0.40133778055690      0.65864378350648      0.38346232594360   
     0.51063492353358      0.63823821858970      0.65291926190043   
     0.41252952059496      0.53883396070944      0.36791848960521   
     0.49276193835848      0.37432152458503      0.62827365403631   
     0.59442060691589      0.47666137252375      0.74464898840312   
     0.40910540134842      0.45156526274845      0.65322302672197   
     0.66748383142010      0.46082545990948      0.65322218897493   
     0.34609312783224      0.68773129282481      0.48377408774188   
     0.53062486611946      0.34699550985199      0.51844240012117   
     0.63796142801419      0.68358717708861      0.37270492821956   
     0.49805789864356      0.52717471533046      0.69789523953446   
     0.60452039356927      0.64111748299369      0.57357691662761   
     0.60479653474608      0.45845347459144      0.37811738283901   
     0.31812650316863      0.61046484982756      0.57106868874679   
     0.48292330139324      0.44271407937325      0.37616139169521   
     0.59248545498007      0.37113444388608      0.69362827207591   
     0.55608827537495      0.35226571753221      0.40111159403245   
     0.34883111419480      0.49499071345697      0.55921037205621   
     0.49145680553399      0.46336395063212      0.49727111546804   
     0.58208116416354      0.70605066381391      0.47240625032305   
     0.46387741238760      0.69806030098450      0.47741115962603   
     0.48754910567834      0.41653428897011      0.73896802977536   
     0.52368358088580      0.72872816967123      0.57403386791227   
     0.50832161698182      0.54717392492407      0.57746342171325   
     0.40757362654541      0.39285864176937      0.54853570717295   
     0.72242453850507      0.43636941263320      0.54814123583410   
     0.69334637705824      0.50083266808367      0.45317685168694   
     0.63966377103409      0.39265567061559      0.47438856786356   
