Be12, -24.80345027 <s> Ni </s>          
   1.00000000000000     
    18.6119973675717105    0.0000000000000000    0.0000000000000000
     0.0000000000000000   18.6119973675717105    0.0000000000000000
     0.0000000000000000    0.0000000000000000   18.6119973675717105
   Ni
    12
Direct
  0.5017734311493740  0.7651852624027331  0.4889431590818074
  0.4591891001909826  0.4666242587874974  0.4401452122151046
  0.4944119796098631  0.6665849116911410  0.6121257827264884
  0.4690698284093265  0.6157452628469290  0.4684617803840594
  0.6113850742677086  0.6781745550120531  0.4950141430196326
  0.6260961124343456  0.5713821328931259  0.6002220816614676
  0.4653200126353051  0.5063768424539167  0.5867482034241567
  0.6941611023969508  0.4483998664410159  0.5430063309531031
  0.5259701307103336  0.5550326968192806  0.7157329852336287
  0.5596824298946964  0.3944923037953485  0.5189610221231555
  0.6014313345330471  0.5274855938720479  0.4407373643713663
  0.5899033589612500  0.4323697854511883  0.6630143258173007
 
  0.00000000E+00  0.00000000E+00  0.00000000E+00
  0.00000000E+00  0.00000000E+00  0.00000000E+00
  0.00000000E+00  0.00000000E+00  0.00000000E+00
  0.00000000E+00  0.00000000E+00  0.00000000E+00
  0.00000000E+00  0.00000000E+00  0.00000000E+00
  0.00000000E+00  0.00000000E+00  0.00000000E+00
  0.00000000E+00  0.00000000E+00  0.00000000E+00
  0.00000000E+00  0.00000000E+00  0.00000000E+00
  0.00000000E+00  0.00000000E+00  0.00000000E+00
  0.00000000E+00  0.00000000E+00  0.00000000E+00
  0.00000000E+00  0.00000000E+00  0.00000000E+00
  0.00000000E+00  0.00000000E+00  0.00000000E+00
