Pt43, -215.97686325 <s> Ag </s>
  1.00000000000000
    22.87882732395901     0.00000000000000     0.00000000000000
     0.00000000000000    22.87882732395901     0.00000000000000
     0.00000000000000     0.00000000000000    22.87882732395901
  Ag    
  43    
Direct
     0.65866819775438      0.67165349883068      0.37324785681822   
     0.70919748723292      0.63038203310895      0.47269957523239   
     0.59451238067209      0.67630497697592      0.47627333801190   
     0.54276972323594      0.70696797931099      0.36947824088717   
     0.67380234885691      0.55226108945480      0.39211524283691   
     0.56895134809515      0.56560538666877      0.44291811485012   
     0.56962300872175      0.60045719096521      0.32658019824724   
     0.64176715398122      0.62469737737786      0.57365404646831   
     0.47464440420066      0.69173866371732      0.46823864741720   
     0.73697280066210      0.54914935117026      0.55249732486506   
     0.45989514879449      0.61694268799678      0.36903846820852   
     0.61230880639909      0.49110626763139      0.31131734906865   
     0.46479105026552      0.57224445313072      0.49962369658239   
     0.59872992530345      0.43110488283165      0.41126399533635   
     0.36615166929130      0.64671899021603      0.43660805135399   
     0.70107140478790      0.46794812663900      0.46922686742438   
     0.52332896718935      0.65269889014926      0.57238459889668   
     0.50231248758422      0.49814277307964      0.36136802100440   
     0.57205113886042      0.60490471219880      0.67136231691499   
     0.61109483401187      0.42590922678578      0.63830422487723   
     0.62495105118632      0.38732722411367      0.52264236660817   
     0.32922294166422      0.38013548122422      0.59270512895589   
     0.42670645120814      0.33906025073645      0.64697735829399   
     0.37983637826010      0.45438858952314      0.67571726076205   
     0.28580092218066      0.48997804266321      0.59063227573853   
     0.42821252018313      0.36334300409798      0.52913750052955   
     0.41888667647620      0.48378793929620      0.56853696721680   
     0.33905282990605      0.44671982571576      0.48832209144210   
     0.49900862358877      0.42493971615991      0.67918580939040   
     0.46471255032015      0.54367684382296      0.70488521499416   
     0.53269740199788      0.34955246455941      0.58966455726191   
     0.32677223891290      0.56738296512430      0.51254738398688   
     0.43618293420564      0.41431519548304      0.42157838021601   
     0.39895965784915      0.65518872580403      0.55588433505293   
     0.51377641824383      0.46256503733910      0.49678243417654   
     0.37125625494017      0.56953448808737      0.63271162159610   
     0.52869704178524      0.34539343527934      0.46664104572400   
     0.52042722424701      0.52528223554982      0.60431106762436   
     0.39548525446221      0.52716353757479      0.41280705759696   
     0.57912126006357      0.49897509917632      0.72881272756386   
     0.66876592526794      0.53196085831701      0.65205896174663   
     0.71880495671332      0.43556877264400      0.58635632182603   
     0.61565163237907      0.51245514141052      0.53853538833640   
