Al12, -32.893066 <s> Pd </s>            
   1.00000000000000     
    20.3911960702138408    0.0000000000000000    0.0000000000000000
     0.0000000000000000   20.3911960702138408    0.0000000000000000
     0.0000000000000000    0.0000000000000000   20.3911960702138408
   Pd
    12
Direct
  0.4462940389455787  0.5110554687955537  0.3394270539639004
  0.4893842655893001  0.3949134326571810  0.3681514416191036
  0.4521705579028092  0.3963258669084499  0.4874459800327240
  0.5670561786228742  0.4955820611658107  0.3900283462813491
  0.5097472911742938  0.6136394441423443  0.3890495722059757
  0.4582495855945751  0.5218218660581240  0.4656266924771459
  0.5828921932418172  0.5804535658684705  0.4912286089465820
  0.5664735977957045  0.4497987249752166  0.5097990325533484
  0.3880597437892602  0.4760012278764222  0.5656451847197714
  0.4945368938243888  0.4107212448819172  0.6110364840183427
  0.5061403930785943  0.5394083360304615  0.5854011590609313
  0.4343780781860693  0.5002119962665064  0.6826460997636358
 
  0.00000000E+00  0.00000000E+00  0.00000000E+00
  0.00000000E+00  0.00000000E+00  0.00000000E+00
  0.00000000E+00  0.00000000E+00  0.00000000E+00
  0.00000000E+00  0.00000000E+00  0.00000000E+00
  0.00000000E+00  0.00000000E+00  0.00000000E+00
  0.00000000E+00  0.00000000E+00  0.00000000E+00
  0.00000000E+00  0.00000000E+00  0.00000000E+00
  0.00000000E+00  0.00000000E+00  0.00000000E+00
  0.00000000E+00  0.00000000E+00  0.00000000E+00
  0.00000000E+00  0.00000000E+00  0.00000000E+00
  0.00000000E+00  0.00000000E+00  0.00000000E+00
  0.00000000E+00  0.00000000E+00  0.00000000E+00
