Al22, -66.48649615 <s> Ag </s>          
   1.00000000000000     
    20.0306502848789485    0.0000000000000000    0.0000000000000000
     0.0000000000000000   20.0306502848789485    0.0000000000000000
     0.0000000000000000    0.0000000000000000   20.0306502848789485
   Ag
    22
Direct
  0.5949558084835121  0.5035143980463237  0.6840144076516177
  0.6525419057340084  0.5757031177454165  0.5790835974728252
  0.5111102991058594  0.4129102255110493  0.6124440400724565
  0.5816375093094127  0.3811984075543244  0.4696646566705557
  0.4518308630513134  0.5038647747291138  0.7011471804642911
  0.6507422684062681  0.4279220624825684  0.5827276975156713
  0.5177904136508006  0.6021626661452849  0.6257052464840506
  0.6778848277541452  0.4877528842684490  0.4612318442598706
  0.5857653655174284  0.6949611757796427  0.5509394611653626
  0.3667781556586301  0.4122816986493220  0.6237664108066366
  0.4369824393431102  0.3904606105967419  0.4994964287579362
  0.6129557867462619  0.6106169405896539  0.4416168283433988
  0.4849136763288259  0.3858348437198153  0.3674567215205478
  0.4138852350067511  0.5281984560198160  0.5693353348656555
  0.5450245927848588  0.5071030861801600  0.5151524339667556
  0.3476787077338144  0.3952172273672747  0.3863385523475354
  0.4712518195359996  0.6274665971027832  0.4928951907055540
  0.5347960308881953  0.7284365006169757  0.4252136777110586
  0.5694064218435029  0.4914468398218749  0.3743749996321246
  0.3139858405073842  0.4608728866123227  0.5033205844677461
  0.4985379197771485  0.6100774711907516  0.3567072813212419
  0.4283221583981353  0.5084405027303462  0.4225925764012012
 
  0.00000000E+00  0.00000000E+00  0.00000000E+00
  0.00000000E+00  0.00000000E+00  0.00000000E+00
  0.00000000E+00  0.00000000E+00  0.00000000E+00
  0.00000000E+00  0.00000000E+00  0.00000000E+00
  0.00000000E+00  0.00000000E+00  0.00000000E+00
  0.00000000E+00  0.00000000E+00  0.00000000E+00
  0.00000000E+00  0.00000000E+00  0.00000000E+00
  0.00000000E+00  0.00000000E+00  0.00000000E+00
  0.00000000E+00  0.00000000E+00  0.00000000E+00
  0.00000000E+00  0.00000000E+00  0.00000000E+00
  0.00000000E+00  0.00000000E+00  0.00000000E+00
  0.00000000E+00  0.00000000E+00  0.00000000E+00
  0.00000000E+00  0.00000000E+00  0.00000000E+00
  0.00000000E+00  0.00000000E+00  0.00000000E+00
  0.00000000E+00  0.00000000E+00  0.00000000E+00
  0.00000000E+00  0.00000000E+00  0.00000000E+00
  0.00000000E+00  0.00000000E+00  0.00000000E+00
  0.00000000E+00  0.00000000E+00  0.00000000E+00
  0.00000000E+00  0.00000000E+00  0.00000000E+00
  0.00000000E+00  0.00000000E+00  0.00000000E+00
  0.00000000E+00  0.00000000E+00  0.00000000E+00
  0.00000000E+00  0.00000000E+00  0.00000000E+00
