Pt33, -155.5137314 <s> Ag </s>
  1.00000000000000
    22.82766885601397     0.00000000000000     0.00000000000000
     0.00000000000000    22.82766885601397     0.00000000000000
     0.00000000000000     0.00000000000000    22.82766885601397
  Ag    
  33    
Direct
     0.31257204537395      0.56966862326445      0.54747224829198   
     0.52847416639710      0.66046094763326      0.53781696310704   
     0.71116027763032      0.58024776251516      0.58525092397111   
     0.40975613880448      0.52856080024184      0.59713342607074   
     0.44817231213871      0.47307172096383      0.49651862827442   
     0.32511905180219      0.41396155879352      0.67918151631735   
     0.72808917172457      0.57460190660430      0.47253958676163   
     0.56109580804347      0.44641644381680      0.47777789373769   
     0.62322664681818      0.52837223397339      0.64544384498977   
     0.69511086680471      0.69184630637458      0.41456543576844   
     0.55676968329525      0.57785229806709      0.31726744797809   
     0.47309994057292      0.72383216341124      0.45828603898970   
     0.36617512260463      0.38067011187597      0.47824819148115   
     0.40823089744000      0.27967597308279      0.51507286012256   
     0.65872496530994      0.66263060060935      0.52074123135539   
     0.43652025106358      0.44114707354753      0.66858379323724   
     0.64498647061143      0.58806509177446      0.39450843095580   
     0.53856277287135      0.63000986887972      0.42212256286517   
     0.51091825923145      0.57928883862508      0.61719288528710   
     0.73176112632346      0.49806283061771      0.38699342958179   
     0.60848585588605      0.64955148935821      0.62313322140473   
     0.61834085730366      0.47789472110180      0.38263394779352   
     0.69252955926639      0.60830209624672      0.69670287984066   
     0.31595897015495      0.45531784155260      0.57098868889048   
     0.34772176555644      0.34118262453307      0.59241578052504   
     0.53879350404707      0.46679067165838      0.59134744218640   
     0.57422880237591      0.36117155325214      0.55497634838718   
     0.33791597417744      0.49734844315070      0.46077511461107   
     0.52876429879183      0.49891208844432      0.70661637522237   
     0.50379465787672      0.51997657843421      0.40430280496034   
     0.46105883419409      0.36398471323208      0.57821512148499   
     0.59071397724646      0.72951728702036      0.44985723329075   
     0.41234023718464      0.44163213671980      0.38871159605436   
