Al45, -142.1661418 <s> Ag </s>          
   1.00000000000000     
    23.6863555505675691    0.0000000000000000    0.0000000000000000
     0.0000000000000000   23.6863555505675691    0.0000000000000000
     0.0000000000000000    0.0000000000000000   23.6863555505675691
   Ag
    45
Direct
  0.5108819900339328  0.6384736110425004  0.4359534446814994
  0.6460455261357877  0.6772744301841928  0.4355437258098927
  0.6093478954785660  0.5712796356962767  0.4022377753154356
  0.4477031817941153  0.7054790895907321  0.5211301310269981
  0.5620891757205794  0.7256911906712151  0.4986553012001944
  0.3874355314235608  0.6635575249835703  0.4271806420964233
  0.4971720266700053  0.5369983266541176  0.3624000866763544
  0.3847630686471523  0.5792487944608367  0.3451159190521083
  0.7117488471176465  0.5864346517955180  0.4752160526878608
  0.6428897489482585  0.4932005702121274  0.4895122987148469
  0.4206515128590307  0.6620999079915503  0.6310689326916505
  0.5308986478237120  0.5260617852088766  0.4755223997519608
  0.5746428132481548  0.4495390424533508  0.3951687308084522
  0.6036084754671476  0.6132150434860438  0.5253406901162013
  0.4795589395528892  0.5962173772374361  0.5527035489414638
  0.3575609105491350  0.6216841510957898  0.5363809800785221
  0.4061082347167381  0.4606113705475632  0.3272954539369181
  0.4174082534659092  0.5539341328519063  0.4564446991116405
  0.3025298593326980  0.5737865702845446  0.4354025527242589
  0.5390369186477837  0.6825181283332773  0.6059203427782900
  0.2930921812493407  0.5110037311597586  0.3297321132228296
  0.7533418629961733  0.4708985313550760  0.5114677083846184
  0.4868237409771735  0.3712845914593195  0.3512565926966552
  0.6667048639573956  0.3782147948153322  0.4827822203436933
  0.6928292005716490  0.5425920817133389  0.5858246573972448
  0.6155131555320736  0.6030857100147285  0.6483225097366278
  0.3342843492322928  0.4581374841325663  0.4232240005971664
  0.5782190740235976  0.3342252343281507  0.4222047279869442
  0.3330831662055052  0.5039324959947343  0.5322572468141146
  0.4540700609099703  0.4413512873837279  0.4334984926981751
  0.4508683333287139  0.4771035390258638  0.5471062963206166
  0.5664118384506914  0.5129700959267953  0.5882053376273607
  0.5542117069895711  0.4159429185441711  0.5130487162003986
  0.3941937189518968  0.5465699194629656  0.6293533862608929
  0.4720925026391819  0.3295516220040396  0.4695075149201153
  0.5026675296671281  0.5811257634214277  0.6707608640179445
  0.6773639334083988  0.4238308249001367  0.5892564093732673
  0.6336221286975091  0.4901292143054334  0.6806467143943995
  0.5735173922216044  0.3081225680393108  0.5411328798737480
  0.5742520342000597  0.3893010939821712  0.6336268779713515
  0.3728589923080390  0.4286477965466247  0.6214594019158737
  0.3764755917817496  0.3890041462894289  0.5089141471601235
  0.4838538592343749  0.4627504472826815  0.6615095955374029
  0.4700448319251593  0.3638767371447472  0.5843116770347367
  0.6708251389435477  0.3815122192566124  0.6979482633371589
 
  0.00000000E+00  0.00000000E+00  0.00000000E+00
  0.00000000E+00  0.00000000E+00  0.00000000E+00
  0.00000000E+00  0.00000000E+00  0.00000000E+00
  0.00000000E+00  0.00000000E+00  0.00000000E+00
  0.00000000E+00  0.00000000E+00  0.00000000E+00
  0.00000000E+00  0.00000000E+00  0.00000000E+00
  0.00000000E+00  0.00000000E+00  0.00000000E+00
  0.00000000E+00  0.00000000E+00  0.00000000E+00
  0.00000000E+00  0.00000000E+00  0.00000000E+00
  0.00000000E+00  0.00000000E+00  0.00000000E+00
  0.00000000E+00  0.00000000E+00  0.00000000E+00
  0.00000000E+00  0.00000000E+00  0.00000000E+00
  0.00000000E+00  0.00000000E+00  0.00000000E+00
  0.00000000E+00  0.00000000E+00  0.00000000E+00
  0.00000000E+00  0.00000000E+00  0.00000000E+00
  0.00000000E+00  0.00000000E+00  0.00000000E+00
  0.00000000E+00  0.00000000E+00  0.00000000E+00
  0.00000000E+00  0.00000000E+00  0.00000000E+00
  0.00000000E+00  0.00000000E+00  0.00000000E+00
  0.00000000E+00  0.00000000E+00  0.00000000E+00
  0.00000000E+00  0.00000000E+00  0.00000000E+00
  0.00000000E+00  0.00000000E+00  0.00000000E+00
  0.00000000E+00  0.00000000E+00  0.00000000E+00
  0.00000000E+00  0.00000000E+00  0.00000000E+00
  0.00000000E+00  0.00000000E+00  0.00000000E+00
  0.00000000E+00  0.00000000E+00  0.00000000E+00
  0.00000000E+00  0.00000000E+00  0.00000000E+00
  0.00000000E+00  0.00000000E+00  0.00000000E+00
  0.00000000E+00  0.00000000E+00  0.00000000E+00
  0.00000000E+00  0.00000000E+00  0.00000000E+00
  0.00000000E+00  0.00000000E+00  0.00000000E+00
  0.00000000E+00  0.00000000E+00  0.00000000E+00
  0.00000000E+00  0.00000000E+00  0.00000000E+00
  0.00000000E+00  0.00000000E+00  0.00000000E+00
  0.00000000E+00  0.00000000E+00  0.00000000E+00
  0.00000000E+00  0.00000000E+00  0.00000000E+00
  0.00000000E+00  0.00000000E+00  0.00000000E+00
  0.00000000E+00  0.00000000E+00  0.00000000E+00
  0.00000000E+00  0.00000000E+00  0.00000000E+00
  0.00000000E+00  0.00000000E+00  0.00000000E+00
  0.00000000E+00  0.00000000E+00  0.00000000E+00
  0.00000000E+00  0.00000000E+00  0.00000000E+00
  0.00000000E+00  0.00000000E+00  0.00000000E+00
  0.00000000E+00  0.00000000E+00  0.00000000E+00
  0.00000000E+00  0.00000000E+00  0.00000000E+00
