Pt14, -61.82632894 <s> Ag </s>          
   1.00000000000000     
    19.4520609359387997    0.0000000000000000    0.0000000000000000
     0.0000000000000000   19.4520609359387997    0.0000000000000000
     0.0000000000000000    0.0000000000000000   19.4520609359387997
   Ag
    14
Direct
  0.5722824245435085  0.5958953429987746  0.6374724301626363
  0.5395521626864485  0.4631034728166116  0.6083681800734044
  0.5085266166397570  0.7158346840101019  0.5842145708049000
  0.5933894418160146  0.5527286910131843  0.5027693811349442
  0.6204345961730395  0.3515111365056663  0.6355998578468153
  0.4557326414295944  0.5829660758741571  0.5615277823794512
  0.6546438440923503  0.4242771974711319  0.5179947280720464
  0.3282649061051056  0.5586402205658251  0.5065940120677920
  0.5037102038071301  0.6720372701429006  0.4525883945193229
  0.5257881473634930  0.3444528124446251  0.5302408600084197
  0.5449461867548892  0.4414242980931591  0.4281532723450303
  0.5624240820958192  0.5772094521274285  0.3651314834311666
  0.4258256759488876  0.4443535046227019  0.5190477525379729
  0.4387394993368617  0.5493227918451035  0.4218264861613960
 
  0.00000000E+00  0.00000000E+00  0.00000000E+00
  0.00000000E+00  0.00000000E+00  0.00000000E+00
  0.00000000E+00  0.00000000E+00  0.00000000E+00
  0.00000000E+00  0.00000000E+00  0.00000000E+00
  0.00000000E+00  0.00000000E+00  0.00000000E+00
  0.00000000E+00  0.00000000E+00  0.00000000E+00
  0.00000000E+00  0.00000000E+00  0.00000000E+00
  0.00000000E+00  0.00000000E+00  0.00000000E+00
  0.00000000E+00  0.00000000E+00  0.00000000E+00
  0.00000000E+00  0.00000000E+00  0.00000000E+00
  0.00000000E+00  0.00000000E+00  0.00000000E+00
  0.00000000E+00  0.00000000E+00  0.00000000E+00
  0.00000000E+00  0.00000000E+00  0.00000000E+00
  0.00000000E+00  0.00000000E+00  0.00000000E+00
