Li10, -12.78012242 <s> Cu </s>
  1.00000000000000
    20.47959717542005     0.00000000000000     0.00000000000000
     0.00000000000000    20.47959717542005     0.00000000000000
     0.00000000000000     0.00000000000000    20.47959717542005
  Cu    
  10    
Direct
     0.46480001590095      0.26222455541903      0.44245498915863   
     0.51343147995440      0.38353241829438      0.44187372971053   
     0.41350087419235      0.36243050184695      0.37771930079921   
     0.51779119153105      0.51185712147786      0.40929582308142   
     0.43252071818339      0.45729468484240      0.43003931003563   
     0.41066051193280      0.36488588437975      0.49498823781559   
     0.45112188339560      0.48582044314236      0.52620078614439   
     0.40346564272879      0.48843108011879      0.33598489030583   
     0.40613304013780      0.56819236867215      0.43669154872516   
     0.33247319952317      0.46122949928663      0.45064994170390   
