Ni11, -991.0 <s> Cu </s>
  1.00000000000000
    17.17293000000000     0.00000000000000     0.00000000000000
     0.00000000000000    17.17293000000000     0.00000000000000
     0.00000000000000     0.00000000000000    17.17293000000000
  Cu    
  11    
Direct
     0.47170947008431      0.61990301649415      0.51036174662130   
     0.36194106423075      0.53180614952670      0.49507694826878   
     0.59228317258019      0.54071137741639      0.52159605249770   
     0.41006478668532      0.39881507947826      0.49597380462026   
     0.55087302638491      0.40246643801515      0.51242851951921   
     0.47938025079068      0.49901144086103      0.43169830275654   
     0.46187751054830      0.49346718364228      0.58155756178470   
     0.53595390164139      0.59664748947493      0.63433227014193   
     0.58567236733520      0.46399401025833      0.63541674334508   
     0.56311592221553      0.60453396981014      0.40299770449748   
     0.61127609252983      0.47160324785730      0.40399852687504   
