Au11, -991.0 <s> Pd </s>                
   1.00000000000000     
    20.8388700000000000    0.0000000000000000    0.0000000000000000
     0.0000000000000000   20.8388700000000000    0.0000000000000000
     0.0000000000000000    0.0000000000000000   20.8388700000000000
   Pd
    11
Direct
  0.3977634695118553  0.4160870951909021  0.4866456000407043
  0.4247835303311368  0.5402038003470316  0.4848240583139508
  0.4885586909624706  0.6387471299818319  0.5338868817427012
  0.5221011945147291  0.5192127992497015  0.5608804246546800
  0.5068338585144050  0.4519300820251208  0.4380522960810974
  0.6190938065056396  0.4852487045257670  0.4914991503485510
  0.6144265818658430  0.6045439808037105  0.5350015950270390
  0.5396354328034764  0.5772661308114945  0.4373809860072924
  0.4929749034804124  0.3985741101283796  0.5628657453143423
  0.5833351115043881  0.3670562736416760  0.4866137114644298
  0.3104934150751458  0.5011298908291287  0.4823495559357179
 
  0.00000000E+00  0.00000000E+00  0.00000000E+00
  0.00000000E+00  0.00000000E+00  0.00000000E+00
  0.00000000E+00  0.00000000E+00  0.00000000E+00
  0.00000000E+00  0.00000000E+00  0.00000000E+00
  0.00000000E+00  0.00000000E+00  0.00000000E+00
  0.00000000E+00  0.00000000E+00  0.00000000E+00
  0.00000000E+00  0.00000000E+00  0.00000000E+00
  0.00000000E+00  0.00000000E+00  0.00000000E+00
  0.00000000E+00  0.00000000E+00  0.00000000E+00
  0.00000000E+00  0.00000000E+00  0.00000000E+00
  0.00000000E+00  0.00000000E+00  0.00000000E+00
