Al13, -36.11813506 <s> Pd </s>          
   1.00000000000000     
    20.0231734671589194    0.0000000000000000    0.0000000000000000
     0.0000000000000000   20.0231734671589194    0.0000000000000000
     0.0000000000000000    0.0000000000000000   20.0231734671589194
   Pd
    13
Direct
  0.4509801531084440  0.5994640078505094  0.4216251904501833
  0.5736660073858121  0.5722885979994813  0.4591915284031928
  0.3715917664882595  0.4978221035782250  0.3802847263764095
  0.6884206428354733  0.5328534719129769  0.5037383403552740
  0.4955952394452047  0.4737171558027782  0.4090209329802736
  0.3477228588044431  0.5511499562009663  0.4966692840324834
  0.5864376018961780  0.4737496371183484  0.5584077648184298
  0.4701214556097514  0.5295973562831497  0.5343010972178339
  0.4009690740234332  0.4233660877869460  0.4893396878360661
  0.3603754795269629  0.4796599559345726  0.6053843397784561
  0.6224112760516857  0.4509418296334582  0.4273134333523615
  0.5298330353127050  0.3746628186556386  0.4883636455024735
  0.4741270113419756  0.4149976727845850  0.6009819213096010
 
  0.00000000E+00  0.00000000E+00  0.00000000E+00
  0.00000000E+00  0.00000000E+00  0.00000000E+00
  0.00000000E+00  0.00000000E+00  0.00000000E+00
  0.00000000E+00  0.00000000E+00  0.00000000E+00
  0.00000000E+00  0.00000000E+00  0.00000000E+00
  0.00000000E+00  0.00000000E+00  0.00000000E+00
  0.00000000E+00  0.00000000E+00  0.00000000E+00
  0.00000000E+00  0.00000000E+00  0.00000000E+00
  0.00000000E+00  0.00000000E+00  0.00000000E+00
  0.00000000E+00  0.00000000E+00  0.00000000E+00
  0.00000000E+00  0.00000000E+00  0.00000000E+00
  0.00000000E+00  0.00000000E+00  0.00000000E+00
  0.00000000E+00  0.00000000E+00  0.00000000E+00
