Pt24, -114.290986 <s> Ag </s>           
   1.00000000000000     
    20.4114163933209412    0.0000000000000000    0.0000000000000000
     0.0000000000000000   20.4114163933209412    0.0000000000000000
     0.0000000000000000    0.0000000000000000   20.4114163933209412
   Ag
    24
Direct
  0.4900500652383189  0.6543319490219717  0.5644462143296501
  0.4860061450562004  0.4619436840836885  0.3962486599170399
  0.4909714835313918  0.5904969522022703  0.3445222785291843
  0.6940746472116294  0.5681019235452457  0.6482488584872610
  0.5980343038379393  0.5410867133918896  0.4214391700673864
  0.4881734504854004  0.4024042458106318  0.5995637687111909
  0.3667706466751148  0.5710890886446808  0.5386124892703110
  0.5761796369511077  0.4871245300794465  0.3011430207117987
  0.6098414111728148  0.5892954830643068  0.5455261743462755
  0.3632073245383410  0.6976081258901029  0.5771647906213984
  0.4169624875151627  0.6028790302949858  0.6645824428881191
  0.6101055568331734  0.3618811503463232  0.5515460939055064
  0.3781525239182095  0.5412559555251728  0.4070131050177135
  0.5503153049975682  0.6647699741964018  0.4445861360546973
  0.6753823679531086  0.4745812143577843  0.5138294191588095
  0.4995643252378442  0.3512025194137156  0.4737486840521429
  0.6133873963444499  0.4050519954338757  0.4080994409420270
  0.3725632098952406  0.4706984021903525  0.6305002529673108
  0.5604505929217366  0.6008139277203816  0.6723424048356652
  0.4012360733106595  0.4434299085883114  0.5013158456453142
  0.7163415928272643  0.3483945484610532  0.4723593333906029
  0.6003259249874686  0.4738977627503818  0.6296633132900123
  0.4873549082898304  0.4903991592471058  0.7028958092941373
  0.4137759262633067  0.6664890617332223  0.4498295995597397
 
  0.00000000E+00  0.00000000E+00  0.00000000E+00
  0.00000000E+00  0.00000000E+00  0.00000000E+00
  0.00000000E+00  0.00000000E+00  0.00000000E+00
  0.00000000E+00  0.00000000E+00  0.00000000E+00
  0.00000000E+00  0.00000000E+00  0.00000000E+00
  0.00000000E+00  0.00000000E+00  0.00000000E+00
  0.00000000E+00  0.00000000E+00  0.00000000E+00
  0.00000000E+00  0.00000000E+00  0.00000000E+00
  0.00000000E+00  0.00000000E+00  0.00000000E+00
  0.00000000E+00  0.00000000E+00  0.00000000E+00
  0.00000000E+00  0.00000000E+00  0.00000000E+00
  0.00000000E+00  0.00000000E+00  0.00000000E+00
  0.00000000E+00  0.00000000E+00  0.00000000E+00
  0.00000000E+00  0.00000000E+00  0.00000000E+00
  0.00000000E+00  0.00000000E+00  0.00000000E+00
  0.00000000E+00  0.00000000E+00  0.00000000E+00
  0.00000000E+00  0.00000000E+00  0.00000000E+00
  0.00000000E+00  0.00000000E+00  0.00000000E+00
  0.00000000E+00  0.00000000E+00  0.00000000E+00
  0.00000000E+00  0.00000000E+00  0.00000000E+00
  0.00000000E+00  0.00000000E+00  0.00000000E+00
  0.00000000E+00  0.00000000E+00  0.00000000E+00
  0.00000000E+00  0.00000000E+00  0.00000000E+00
  0.00000000E+00  0.00000000E+00  0.00000000E+00
