Pb11, -34.94866786 <s> Ag </s>          
   1.00000000000000     
    20.1074711573291012    0.0000000000000000    0.0000000000000000
     0.0000000000000000   20.1074711573291012    0.0000000000000000
     0.0000000000000000    0.0000000000000000   20.1074711573291012
   Ag
    11
Direct
  0.4249757144664001  0.5052383022307798  0.3365742806023140
  0.4992007800115661  0.3915643158767787  0.3453542258888516
  0.3624027067586165  0.3790574021853350  0.3581534337046015
  0.5713682369852973  0.5078927664910654  0.3664723061516766
  0.2333590466770698  0.4009872461401818  0.4069979969741037
  0.5588465712589187  0.4122425275476310  0.4679359638014532
  0.3417061397411689  0.4795384955361299  0.4491049650428851
  0.4731394821666371  0.5207714183421309  0.4628109658080897
  0.4521800846972985  0.3153664276129757  0.4483962192704818
  0.3222492583980113  0.3436423251633665  0.4909125752127745
  0.4322378705631617  0.4153646645977500  0.5389529592668928
 
  0.00000000E+00  0.00000000E+00  0.00000000E+00
  0.00000000E+00  0.00000000E+00  0.00000000E+00
  0.00000000E+00  0.00000000E+00  0.00000000E+00
  0.00000000E+00  0.00000000E+00  0.00000000E+00
  0.00000000E+00  0.00000000E+00  0.00000000E+00
  0.00000000E+00  0.00000000E+00  0.00000000E+00
  0.00000000E+00  0.00000000E+00  0.00000000E+00
  0.00000000E+00  0.00000000E+00  0.00000000E+00
  0.00000000E+00  0.00000000E+00  0.00000000E+00
  0.00000000E+00  0.00000000E+00  0.00000000E+00
  0.00000000E+00  0.00000000E+00  0.00000000E+00
