Pd11, -1408.360111 <s> Cu </s>          
   1.00000000000000     
    18.9406400999999995    0.0000000000000000    0.0000000000000000
     0.0000000000000000   18.9406400999999995    0.0000000000000000
     0.0000000000000000    0.0000000000000000   18.9406400999999995
   Cu
    11
Direct
  0.5891114415069386  0.5984882471081837  0.5786577842231774
  0.4195752508732799  0.5226678228702943  0.4636190404818993
  0.5219800842467249  0.6015137323179297  0.4719032618158294
  0.6346725705097388  0.5343125198791691  0.4771380928701907
  0.5969955866916080  0.4079177443903714  0.4698713588576242
  0.4674015230190101  0.3997932844521210  0.4685338227148949
  0.5312641757073220  0.4945536239069142  0.4048315245949084
  0.5323695231706370  0.4881178516703628  0.5405793536434903
  0.4571626272582988  0.5770878009668741  0.5822145302330316
  0.4064567587055117  0.4593213867489651  0.5711563983441839
  0.3432587711083335  0.4167759832866159  0.4705098180539409
 
  0.00000000E+00  0.00000000E+00  0.00000000E+00
  0.00000000E+00  0.00000000E+00  0.00000000E+00
  0.00000000E+00  0.00000000E+00  0.00000000E+00
  0.00000000E+00  0.00000000E+00  0.00000000E+00
  0.00000000E+00  0.00000000E+00  0.00000000E+00
  0.00000000E+00  0.00000000E+00  0.00000000E+00
  0.00000000E+00  0.00000000E+00  0.00000000E+00
  0.00000000E+00  0.00000000E+00  0.00000000E+00
  0.00000000E+00  0.00000000E+00  0.00000000E+00
  0.00000000E+00  0.00000000E+00  0.00000000E+00
  0.00000000E+00  0.00000000E+00  0.00000000E+00
