Pd11, -1408.360111 <s> Cu </s>
  1.00000000000000
    18.94064010000000     0.00000000000000     0.00000000000000
     0.00000000000000    18.94064010000000     0.00000000000000
     0.00000000000000     0.00000000000000    18.94064010000000
  Cu    
  11    
Direct
     0.58690844981539      0.59488409045485      0.57980247180282   
     0.41939931379327      0.52416639540323      0.46621522064772   
     0.52256521977300      0.60620332225685      0.46893469267618   
     0.63256510413075      0.53580568865003      0.47274760885517   
     0.59862418129626      0.40879066975266      0.47102601793553   
     0.46868469049921      0.39799340539116      0.46779490235780   
     0.53220741904632      0.49197380897949      0.40378181753844   
     0.53088508184368      0.48455652009602      0.54565590040472   
     0.45767759786497      0.57957857797586      0.58003306791456   
     0.40575183151233      0.45455435686283      0.57385458449979   
     0.34497942322222      0.42204316177482      0.46916870120044   
