Be11, -23.09536783 <s> Ni </s>          
   1.00000000000000     
    18.2523957130306904    0.0000000000000000    0.0000000000000000
     0.0000000000000000   18.2523957130306904    0.0000000000000000
     0.0000000000000000    0.0000000000000000   18.2523957130306904
   Ni
    11
Direct
  0.4030596875428956  0.6133504237393714  0.5811920317623466
  0.4785873103219708  0.6939373849255934  0.5255646817172572
  0.5314556828863403  0.6043525013510201  0.6056725655894329
  0.4907994258752646  0.5673705145612785  0.4954679144175009
  0.5352462567192352  0.4462622455213094  0.5204855278317359
  0.6128162737628998  0.5298279097615011  0.4646991904373926
  0.5757137823926106  0.4829395296832212  0.6309121791215149
  0.5942006036605797  0.6515645181866643  0.4999441470256748
  0.6537685806498253  0.5660001935450732  0.5752464935744257
  0.6629188283839100  0.4402101912109923  0.5442693402928135
  0.4517314228483385  0.4990608818496017  0.6022409423319779
 
  0.00000000E+00  0.00000000E+00  0.00000000E+00
  0.00000000E+00  0.00000000E+00  0.00000000E+00
  0.00000000E+00  0.00000000E+00  0.00000000E+00
  0.00000000E+00  0.00000000E+00  0.00000000E+00
  0.00000000E+00  0.00000000E+00  0.00000000E+00
  0.00000000E+00  0.00000000E+00  0.00000000E+00
  0.00000000E+00  0.00000000E+00  0.00000000E+00
  0.00000000E+00  0.00000000E+00  0.00000000E+00
  0.00000000E+00  0.00000000E+00  0.00000000E+00
  0.00000000E+00  0.00000000E+00  0.00000000E+00
  0.00000000E+00  0.00000000E+00  0.00000000E+00
