Be11, -23.09536783 <s> Ni </s>          
   1.00000000000000     
    18.2523957130306904    0.0000000000000000    0.0000000000000000
     0.0000000000000000   18.2523957130306904    0.0000000000000000
     0.0000000000000000    0.0000000000000000   18.2523957130306904
   Ni
    11
Direct
  0.3756920381753774  0.6207754247499843  0.5851988199987518
  0.4658650421479674  0.7215143545514657  0.5249924030784306
  0.5386892136358299  0.6104595250990027  0.6135506839083310
  0.4678317092609208  0.5702385399448983  0.4667286701680176
  0.5220942701549340  0.4178785535429213  0.5122782684807355
  0.6197443521066245  0.5287835665411699  0.4662161353916868
  0.5880017775674088  0.4695758797033642  0.6471642759760267
  0.6017263678872685  0.6777351920977929  0.4856022202931974
  0.6997161426788975  0.5735144476980647  0.5878930206974434
  0.6825363882139834  0.4169741444582790  0.5437012925668069
  0.4284005532146638  0.4874266659486829  0.6123692235426534
 
  0.00000000E+00  0.00000000E+00  0.00000000E+00
  0.00000000E+00  0.00000000E+00  0.00000000E+00
  0.00000000E+00  0.00000000E+00  0.00000000E+00
  0.00000000E+00  0.00000000E+00  0.00000000E+00
  0.00000000E+00  0.00000000E+00  0.00000000E+00
  0.00000000E+00  0.00000000E+00  0.00000000E+00
  0.00000000E+00  0.00000000E+00  0.00000000E+00
  0.00000000E+00  0.00000000E+00  0.00000000E+00
  0.00000000E+00  0.00000000E+00  0.00000000E+00
  0.00000000E+00  0.00000000E+00  0.00000000E+00
  0.00000000E+00  0.00000000E+00  0.00000000E+00
