Na53, -57.77003238 <s> Ag </s>          
   1.00000000000000     
    26.7721721074707304    0.0000000000000000    0.0000000000000000
     0.0000000000000000   26.7721721074707304    0.0000000000000000
     0.0000000000000000    0.0000000000000000   26.7721721074707304
   Ag
    53
Direct
  0.3692269958092497  0.4339332240002378  0.2032731844506231
  0.4425076314930183  0.3614102416870930  0.2346014634831222
  0.5141802699872865  0.2902210975929927  0.2756407125300258
  0.3345024420869186  0.3425467779830860  0.2491067220865147
  0.4612798320423553  0.4680666647221566  0.2467692349723652
  0.2616987155738805  0.5337454252872760  0.2480976952756661
  0.4086376802418687  0.2700574916721297  0.2859462504198850
  0.5353174101761072  0.3962186168666031  0.2856284885237205
  0.2838835999940281  0.4358407900353228  0.2698786262379256
  0.3625746077020364  0.5183868265644193  0.2702819650533110
  0.3021135569559838  0.2548302091157240  0.3034672790197193
  0.5492194447751563  0.5019631981919433  0.2994195096497934
  0.3853903065970175  0.4199793159793449  0.3037737788457165
  0.4586477601173889  0.3478169048922917  0.3399010975768114
  0.2517246577498718  0.3476714229100291  0.3235677276414320
  0.4539046318892122  0.5523827769579751  0.3163476801927260
  0.5785054172267619  0.4294607486804087  0.3788687597874491
  0.5593467526154491  0.3233418410793538  0.3669569262126232
  0.3516437302799060  0.3296399788152135  0.3536492968402049
  0.4765493766439363  0.4555458907325787  0.3533348364648514
  0.4812338518317421  0.2468192534316671  0.3682597898828764
  0.2779252486354857  0.5244023961822407  0.3474164223938104
  0.2080281286529132  0.4439972533542026  0.3456721820322904
  0.3563259835867471  0.5957976068119010  0.3417222894484594
  0.3046782312768444  0.4248524796100802  0.3766665548950582
  0.3836240049677363  0.5056199909558912  0.3792874476717723
  0.4023145161276269  0.4064583891924886  0.4056773755744039
  0.3724958089097768  0.2288374158696858  0.3821218834752622
  0.3133870782444341  0.5599796250356198  0.4381157832263393
  0.2736158641186910  0.2782523082823228  0.4049354772913855
  0.2255824530030967  0.3742454976396458  0.4278170439404497
  0.2432043422559215  0.4792814282406264  0.4430991338189015
  0.5003047319309745  0.3827075964382383  0.4336856137670941
  0.4553961462261151  0.4826472020666717  0.4591820926138067
  0.4227656602821128  0.3071420747058368  0.4344351126402231
  0.3274579501833050  0.3547242209977682  0.4565560571485014
  0.3485001460742482  0.4657861645781989  0.4722388988865769
  0.5967177131129465  0.3597765314611849  0.4612092223417759
  0.5535398523044972  0.4573153365840851  0.4859982240839204
  0.5239981046870362  0.2805545436754178  0.4624308172317787
  0.4424873518192026  0.2104193107609566  0.4620132235845663
  0.5360715489980168  0.5242041970630849  0.4048878999878155
  0.3460707694471606  0.2538559311500848  0.4867144018245728
  0.4182531493948805  0.3886837103349293  0.5065793345565013
  0.2857851348627124  0.5150548673829846  0.5347655549015652
  0.2536487152900506  0.3056129464074517  0.5073920674177851
  0.2689937809814284  0.4107192346453716  0.5232069375688412
  0.5192516842731867  0.3622173488566501  0.5364476919101049
  0.4759831036742902  0.4567093990575756  0.5598155134310449
  0.4403401424886125  0.2873934179308134  0.5370368216931821
  0.3601363263154216  0.4430247775952413  0.5748113795804367
  0.3420816178142246  0.3354609305530450  0.5610287928152323
  0.4342534191020201  0.3696945502127528  0.6055691039300942
 
  0.00000000E+00  0.00000000E+00  0.00000000E+00
  0.00000000E+00  0.00000000E+00  0.00000000E+00
  0.00000000E+00  0.00000000E+00  0.00000000E+00
  0.00000000E+00  0.00000000E+00  0.00000000E+00
  0.00000000E+00  0.00000000E+00  0.00000000E+00
  0.00000000E+00  0.00000000E+00  0.00000000E+00
  0.00000000E+00  0.00000000E+00  0.00000000E+00
  0.00000000E+00  0.00000000E+00  0.00000000E+00
  0.00000000E+00  0.00000000E+00  0.00000000E+00
  0.00000000E+00  0.00000000E+00  0.00000000E+00
  0.00000000E+00  0.00000000E+00  0.00000000E+00
  0.00000000E+00  0.00000000E+00  0.00000000E+00
  0.00000000E+00  0.00000000E+00  0.00000000E+00
  0.00000000E+00  0.00000000E+00  0.00000000E+00
  0.00000000E+00  0.00000000E+00  0.00000000E+00
  0.00000000E+00  0.00000000E+00  0.00000000E+00
  0.00000000E+00  0.00000000E+00  0.00000000E+00
  0.00000000E+00  0.00000000E+00  0.00000000E+00
  0.00000000E+00  0.00000000E+00  0.00000000E+00
  0.00000000E+00  0.00000000E+00  0.00000000E+00
  0.00000000E+00  0.00000000E+00  0.00000000E+00
  0.00000000E+00  0.00000000E+00  0.00000000E+00
  0.00000000E+00  0.00000000E+00  0.00000000E+00
  0.00000000E+00  0.00000000E+00  0.00000000E+00
  0.00000000E+00  0.00000000E+00  0.00000000E+00
  0.00000000E+00  0.00000000E+00  0.00000000E+00
  0.00000000E+00  0.00000000E+00  0.00000000E+00
  0.00000000E+00  0.00000000E+00  0.00000000E+00
  0.00000000E+00  0.00000000E+00  0.00000000E+00
  0.00000000E+00  0.00000000E+00  0.00000000E+00
  0.00000000E+00  0.00000000E+00  0.00000000E+00
  0.00000000E+00  0.00000000E+00  0.00000000E+00
  0.00000000E+00  0.00000000E+00  0.00000000E+00
  0.00000000E+00  0.00000000E+00  0.00000000E+00
  0.00000000E+00  0.00000000E+00  0.00000000E+00
  0.00000000E+00  0.00000000E+00  0.00000000E+00
  0.00000000E+00  0.00000000E+00  0.00000000E+00
  0.00000000E+00  0.00000000E+00  0.00000000E+00
  0.00000000E+00  0.00000000E+00  0.00000000E+00
  0.00000000E+00  0.00000000E+00  0.00000000E+00
  0.00000000E+00  0.00000000E+00  0.00000000E+00
  0.00000000E+00  0.00000000E+00  0.00000000E+00
  0.00000000E+00  0.00000000E+00  0.00000000E+00
  0.00000000E+00  0.00000000E+00  0.00000000E+00
  0.00000000E+00  0.00000000E+00  0.00000000E+00
  0.00000000E+00  0.00000000E+00  0.00000000E+00
  0.00000000E+00  0.00000000E+00  0.00000000E+00
  0.00000000E+00  0.00000000E+00  0.00000000E+00
  0.00000000E+00  0.00000000E+00  0.00000000E+00
  0.00000000E+00  0.00000000E+00  0.00000000E+00
  0.00000000E+00  0.00000000E+00  0.00000000E+00
  0.00000000E+00  0.00000000E+00  0.00000000E+00
  0.00000000E+00  0.00000000E+00  0.00000000E+00
