Pt36, -175.33557634 <s> Ag </s>         
   1.00000000000000     
    23.1997958568192715    0.0000000000000000    0.0000000000000000
     0.0000000000000000   23.1997958568192715    0.0000000000000000
     0.0000000000000000    0.0000000000000000   23.1997958568192715
   Ag
    36
Direct
  0.4667851380938458  0.6404234087293778  0.4751462841268341
  0.3199033989044200  0.5458012311397636  0.3574670009016638
  0.6976823474420057  0.3669804660741141  0.4570099832310153
  0.4689732520665671  0.4974198600766201  0.7509029754080209
  0.3672450734811957  0.5481687029119552  0.7754084384993146
  0.3450277446551672  0.4459088631614447  0.4245996640084755
  0.5463036341096031  0.4929166191282862  0.5282314148000867
  0.5821860772660836  0.3924094016552270  0.4717350237551097
  0.6001630238174329  0.3864218514689826  0.5954566457144691
  0.4477333607437710  0.4285469543449335  0.6456398087344412
  0.3858128758820980  0.4576773442489032  0.5453965186861823
  0.5935370283648670  0.6785106020991837  0.4705282162010438
  0.5238463752133777  0.6739045483274748  0.3739043380986569
  0.6755785213387964  0.4525808283251019  0.5335650842522843
  0.6133011217308261  0.6202122952863700  0.6640666453093186
  0.4153549174655049  0.6201840348857954  0.3659721897342870
  0.5467988603194144  0.4801059650301664  0.3907787170777526
  0.5885188103051499  0.5336014691085097  0.7433282715201139
  0.6474941283999871  0.5673753867857960  0.5074157441383165
  0.4905447696408786  0.3754824286927779  0.5491082599086193
  0.4998555916033943  0.7533571290039975  0.4580233224998919
  0.6260276111195463  0.5069049450750976  0.6244510096909028
  0.5560674910942321  0.4296309742432685  0.6978033357704819
  0.6254499558861638  0.5081898771668470  0.3074544874209139
  0.5098415276387080  0.3261474171381681  0.6553759226815891
  0.6636082028975030  0.4776186406835557  0.4188354186332753
  0.3807635723787141  0.5540118494362318  0.4607763384272749
  0.6119827959957521  0.5883213487517446  0.3935461318605167
  0.6620906752061123  0.6712118881975860  0.5668401754486397
  0.4452820842603294  0.5586469359179794  0.5577646307120148
  0.3893416368185147  0.5283338686893458  0.6615741102239996
  0.5194493553523450  0.5704195330293793  0.3169136962452294
  0.5514948769564054  0.6147437034363117  0.5627357006651882
  0.4606378639025314  0.4351793547363864  0.4537306178982901
  0.5139967136470599  0.5427109495812629  0.6508709616194096
  0.4310183759148476  0.4996381133452254  0.3573417060095326
 
  0.00000000E+00  0.00000000E+00  0.00000000E+00
  0.00000000E+00  0.00000000E+00  0.00000000E+00
  0.00000000E+00  0.00000000E+00  0.00000000E+00
  0.00000000E+00  0.00000000E+00  0.00000000E+00
  0.00000000E+00  0.00000000E+00  0.00000000E+00
  0.00000000E+00  0.00000000E+00  0.00000000E+00
  0.00000000E+00  0.00000000E+00  0.00000000E+00
  0.00000000E+00  0.00000000E+00  0.00000000E+00
  0.00000000E+00  0.00000000E+00  0.00000000E+00
  0.00000000E+00  0.00000000E+00  0.00000000E+00
  0.00000000E+00  0.00000000E+00  0.00000000E+00
  0.00000000E+00  0.00000000E+00  0.00000000E+00
  0.00000000E+00  0.00000000E+00  0.00000000E+00
  0.00000000E+00  0.00000000E+00  0.00000000E+00
  0.00000000E+00  0.00000000E+00  0.00000000E+00
  0.00000000E+00  0.00000000E+00  0.00000000E+00
  0.00000000E+00  0.00000000E+00  0.00000000E+00
  0.00000000E+00  0.00000000E+00  0.00000000E+00
  0.00000000E+00  0.00000000E+00  0.00000000E+00
  0.00000000E+00  0.00000000E+00  0.00000000E+00
  0.00000000E+00  0.00000000E+00  0.00000000E+00
  0.00000000E+00  0.00000000E+00  0.00000000E+00
  0.00000000E+00  0.00000000E+00  0.00000000E+00
  0.00000000E+00  0.00000000E+00  0.00000000E+00
  0.00000000E+00  0.00000000E+00  0.00000000E+00
  0.00000000E+00  0.00000000E+00  0.00000000E+00
  0.00000000E+00  0.00000000E+00  0.00000000E+00
  0.00000000E+00  0.00000000E+00  0.00000000E+00
  0.00000000E+00  0.00000000E+00  0.00000000E+00
  0.00000000E+00  0.00000000E+00  0.00000000E+00
  0.00000000E+00  0.00000000E+00  0.00000000E+00
  0.00000000E+00  0.00000000E+00  0.00000000E+00
  0.00000000E+00  0.00000000E+00  0.00000000E+00
  0.00000000E+00  0.00000000E+00  0.00000000E+00
  0.00000000E+00  0.00000000E+00  0.00000000E+00
  0.00000000E+00  0.00000000E+00  0.00000000E+00
