Al49, -155.94178377 <s> Ag </s>         
   1.00000000000000     
    24.2445447006936590    0.0000000000000000    0.0000000000000000
     0.0000000000000000   24.2445447006936590    0.0000000000000000
     0.0000000000000000    0.0000000000000000   24.2445447006936590
   Ag
    49
Direct
  0.6268082246439385  0.4799808045263161  0.6946568750506336
  0.6544323121144557  0.4111772229664867  0.6077560947295159
  0.7002416337520813  0.5712338176277660  0.4972846577113684
  0.6134275818380200  0.3674261108616452  0.7119834638502617
  0.6275603058491392  0.5288078881370992  0.5854799966973451
  0.5276065248100349  0.4478934826382571  0.7469662942743097
  0.6856869256087109  0.4541214477952669  0.5058704375122987
  0.6014550399163845  0.6316876120455870  0.5114158949582341
  0.5297505709448245  0.5280830143051203  0.6598350759096582
  0.6873392556994912  0.5118796409357728  0.3954077800496412
  0.6206265693357211  0.3022567548601827  0.6160247889695041
  0.5339346522441157  0.4109879920396953  0.6398823711792367
  0.6008859747889456  0.5245037289657072  0.4665708971580476
  0.5526335427960016  0.6334162162299405  0.6157403045451342
  0.5584063206133335  0.7045141526473696  0.4299178499697608
  0.5210661923082958  0.3025709317917438  0.6757900468710391
  0.6296852201276862  0.3456146962459888  0.5096649147653026
  0.5524652054711159  0.7296225076658311  0.5477747577027774
  0.6171266010188985  0.6121704445361185  0.3932003765370078
  0.4338739149782627  0.4614102981551835  0.6764698503332306
  0.6176485693104001  0.4189010988197968  0.4168495678450582
  0.5635712850656216  0.4364490939931961  0.5318050401724387
  0.5510902368443952  0.8117676873987451  0.4668452596414738
  0.5201009818245842  0.5475277867985892  0.5436333025880408
  0.5080373724114051  0.5958446515541347  0.4331372052242699
  0.5231225578911318  0.3235477810973885  0.5579544976046535
  0.4654093252045294  0.6544089922121467  0.5416854591928699
  0.4576098901272770  0.7488653825803663  0.4749879247516821
  0.5245081043380004  0.3579519283308524  0.4478472086516008
  0.4477950720641557  0.4581539706950649  0.5623527125522098
  0.4592849289561891  0.6901954945912859  0.3731853374324340
  0.5122387817187262  0.6033880495346325  0.3205836404259002
  0.4293252298502876  0.5663985100266408  0.6163962865488229
  0.4916570087719185  0.4756036679203751  0.4471293094624598
  0.5291638831967805  0.4053950484138096  0.3428528777365700
  0.5740536410914807  0.5103834018349722  0.3534589619971302
  0.4320219114047225  0.3528392784619789  0.6232049827727301
  0.4181965807531919  0.5570763603590790  0.4928814271087654
  0.3515699284605703  0.6319942844294433  0.5599826001715862
  0.4242942819245911  0.3615800499218835  0.5029425386020002
  0.3830602908019546  0.6643719397486347  0.4548634243514990
  0.3441612843742373  0.4061546891488187  0.5770596081832507
  0.4009556482345167  0.5899097262718779  0.3676637323355216
  0.4596407676751132  0.4988665935050239  0.3316992454241932
  0.4229898888931248  0.4001459763447682  0.3896947010871514
  0.3621137456965197  0.4555557038630544  0.4692948153075817
  0.3350340668343484  0.5184800159020482  0.5622097259056227
  0.3165123785432398  0.5640527573382106  0.4472375759134948
  0.3483873550712720  0.4882553438295583  0.3582020784189446
 
  0.00000000E+00  0.00000000E+00  0.00000000E+00
  0.00000000E+00  0.00000000E+00  0.00000000E+00
  0.00000000E+00  0.00000000E+00  0.00000000E+00
  0.00000000E+00  0.00000000E+00  0.00000000E+00
  0.00000000E+00  0.00000000E+00  0.00000000E+00
  0.00000000E+00  0.00000000E+00  0.00000000E+00
  0.00000000E+00  0.00000000E+00  0.00000000E+00
  0.00000000E+00  0.00000000E+00  0.00000000E+00
  0.00000000E+00  0.00000000E+00  0.00000000E+00
  0.00000000E+00  0.00000000E+00  0.00000000E+00
  0.00000000E+00  0.00000000E+00  0.00000000E+00
  0.00000000E+00  0.00000000E+00  0.00000000E+00
  0.00000000E+00  0.00000000E+00  0.00000000E+00
  0.00000000E+00  0.00000000E+00  0.00000000E+00
  0.00000000E+00  0.00000000E+00  0.00000000E+00
  0.00000000E+00  0.00000000E+00  0.00000000E+00
  0.00000000E+00  0.00000000E+00  0.00000000E+00
  0.00000000E+00  0.00000000E+00  0.00000000E+00
  0.00000000E+00  0.00000000E+00  0.00000000E+00
  0.00000000E+00  0.00000000E+00  0.00000000E+00
  0.00000000E+00  0.00000000E+00  0.00000000E+00
  0.00000000E+00  0.00000000E+00  0.00000000E+00
  0.00000000E+00  0.00000000E+00  0.00000000E+00
  0.00000000E+00  0.00000000E+00  0.00000000E+00
  0.00000000E+00  0.00000000E+00  0.00000000E+00
  0.00000000E+00  0.00000000E+00  0.00000000E+00
  0.00000000E+00  0.00000000E+00  0.00000000E+00
  0.00000000E+00  0.00000000E+00  0.00000000E+00
  0.00000000E+00  0.00000000E+00  0.00000000E+00
  0.00000000E+00  0.00000000E+00  0.00000000E+00
  0.00000000E+00  0.00000000E+00  0.00000000E+00
  0.00000000E+00  0.00000000E+00  0.00000000E+00
  0.00000000E+00  0.00000000E+00  0.00000000E+00
  0.00000000E+00  0.00000000E+00  0.00000000E+00
  0.00000000E+00  0.00000000E+00  0.00000000E+00
  0.00000000E+00  0.00000000E+00  0.00000000E+00
  0.00000000E+00  0.00000000E+00  0.00000000E+00
  0.00000000E+00  0.00000000E+00  0.00000000E+00
  0.00000000E+00  0.00000000E+00  0.00000000E+00
  0.00000000E+00  0.00000000E+00  0.00000000E+00
  0.00000000E+00  0.00000000E+00  0.00000000E+00
  0.00000000E+00  0.00000000E+00  0.00000000E+00
  0.00000000E+00  0.00000000E+00  0.00000000E+00
  0.00000000E+00  0.00000000E+00  0.00000000E+00
  0.00000000E+00  0.00000000E+00  0.00000000E+00
  0.00000000E+00  0.00000000E+00  0.00000000E+00
  0.00000000E+00  0.00000000E+00  0.00000000E+00
  0.00000000E+00  0.00000000E+00  0.00000000E+00
  0.00000000E+00  0.00000000E+00  0.00000000E+00
