Ag11, -948.0 <s> Cu </s>
  1.00000000000000
    20.64011600000000     0.00000000000000     0.00000000000000
     0.00000000000000    20.64011600000000     0.00000000000000
     0.00000000000000     0.00000000000000    20.64011600000000
  Cu    
  11    
Direct
     0.50000000000000      0.50000000000000      0.60927898572510   
     0.56211987790149      0.56009860724112      0.52654518945190   
     0.50000000000000      0.66141676923444      0.53799292954406   
     0.43788012209851      0.56009860724112      0.52654518945190   
     0.43788012209851      0.43990139275888      0.52654518945190   
     0.44008063871145      0.50000000000000      0.42188735675902   
     0.50000000000000      0.60645853195476      0.43238985122199   
     0.55991936128855      0.50000000000000      0.42188735675902   
     0.56211987790149      0.43990139275888      0.52654518945190   
     0.50000000000000      0.39354146804524      0.43238985122199   
     0.50000000000000      0.33858323076556      0.53799292954406   
