Ag13, -906.0 <s> Ag </s>                
   1.00000000000000     
    18.3174519999999994    0.0000000000000000    0.0000000000000000
     0.0000000000000000   18.3174519999999994    0.0000000000000000
     0.0000000000000000    0.0000000000000000   18.3174519999999994
   Ag
    13
Direct
  0.5007769249788709  0.5867929451724256  0.5130146271239129
  0.5981731838021003  0.6224279532846162  0.6224079841328272
  0.5293862983198599  0.6238931641415838  0.3671439306439571
  0.6241552666506288  0.4917243281797524  0.5495555191454974
  0.6419071388965465  0.6221158987874071  0.4713289557794766
  0.5000000000000000  0.5000000000000000  0.6421709684704925
  0.4992230750211291  0.4132070548275744  0.5130146271239129
  0.4223659592373750  0.5127215637866808  0.4054634989390898
  0.5776340407626250  0.4872784362133193  0.4054634989390898
  0.3580928611034535  0.3778841012125929  0.4713289557794766
  0.3758447333493711  0.5082756718202477  0.5495555191454974
  0.4706137016801401  0.3761068358584163  0.3671439306439571
  0.4018268161978998  0.3775720467153838  0.6224079841328272
 
  0.00000000E+00  0.00000000E+00  0.00000000E+00
  0.00000000E+00  0.00000000E+00  0.00000000E+00
  0.00000000E+00  0.00000000E+00  0.00000000E+00
  0.00000000E+00  0.00000000E+00  0.00000000E+00
  0.00000000E+00  0.00000000E+00  0.00000000E+00
  0.00000000E+00  0.00000000E+00  0.00000000E+00
  0.00000000E+00  0.00000000E+00  0.00000000E+00
  0.00000000E+00  0.00000000E+00  0.00000000E+00
  0.00000000E+00  0.00000000E+00  0.00000000E+00
  0.00000000E+00  0.00000000E+00  0.00000000E+00
  0.00000000E+00  0.00000000E+00  0.00000000E+00
  0.00000000E+00  0.00000000E+00  0.00000000E+00
  0.00000000E+00  0.00000000E+00  0.00000000E+00
