Ag13 https://doi.org/10.1021/JP404493W <s> Ag </s>
  1.00000000000000
    18.97427700000000     0.00000000000000     0.00000000000000
     0.00000000000000    18.97427700000000     0.00000000000000
     0.00000000000000     0.00000000000000    18.97427700000000
  Ag    
  13    
Cartesian
    -1.19677800000000      0.24368500000000      1.17135600000000   
    -2.88402900000000      2.29027500000000      0.27212000000000   
    -2.08193100000000     -2.46709900000000      1.16335400000000   
    -1.48541900000000      0.88462000000000     -1.74995400000000   
    -3.48714000000000     -0.50167400000000     -0.30133500000000   
    -0.00000400000000      2.62130200000000     -0.00000100000000   
     1.19677400000000      0.24368000000000     -1.17134600000000   
     0.79487700000000     -1.76046400000000      1.20582900000000   
    -0.79487000000000     -1.76047700000000     -1.20582900000000   
     3.48713700000000     -0.50166200000000      0.30133200000000   
     1.48541800000000      0.88463300000000      1.74995200000000   
     2.08194500000000     -2.46710000000000     -1.16334600000000   
     2.88402000000000      2.29028100000000     -0.27213200000000   
