Pb12, -38.3957868 <s> Ni </s>           
   1.00000000000000     
    19.7641906625071897    0.0000000000000000    0.0000000000000000
     0.0000000000000000   19.7641906625071897    0.0000000000000000
     0.0000000000000000    0.0000000000000000   19.7641906625071897
   Ni
    12
Direct
  0.4323355969735495  0.4507183565834227  0.3192351489297418
  0.4129224921794994  0.3010787223480148  0.2795020305302603
  0.3084430673783688  0.3868654916844049  0.2606266946159734
  0.2847203535407083  0.5194740213415903  0.2971857938937039
  0.2801070220012316  0.2650542015368453  0.3312613394542356
  0.5070012467168439  0.3333303547255521  0.3791715028924739
  0.2188479315137503  0.4070659670104360  0.3713079230391330
  0.4125934421161735  0.2182080664111717  0.3988961193566786
  0.3279388821292892  0.4946944484054697  0.4229867994549287
  0.3512406920506535  0.3469099735333007  0.4227892892235237
  0.4542216594053545  0.4380903389982209  0.4670904181850406
  0.4666333919052300  0.2955158353322374  0.5069527183349946
 
  0.00000000E+00  0.00000000E+00  0.00000000E+00
  0.00000000E+00  0.00000000E+00  0.00000000E+00
  0.00000000E+00  0.00000000E+00  0.00000000E+00
  0.00000000E+00  0.00000000E+00  0.00000000E+00
  0.00000000E+00  0.00000000E+00  0.00000000E+00
  0.00000000E+00  0.00000000E+00  0.00000000E+00
  0.00000000E+00  0.00000000E+00  0.00000000E+00
  0.00000000E+00  0.00000000E+00  0.00000000E+00
  0.00000000E+00  0.00000000E+00  0.00000000E+00
  0.00000000E+00  0.00000000E+00  0.00000000E+00
  0.00000000E+00  0.00000000E+00  0.00000000E+00
  0.00000000E+00  0.00000000E+00  0.00000000E+00
