Be5, -4.75458617 <s> Ag </s>            
   1.00000000000000     
    16.7980301399704715    0.0000000000000000    0.0000000000000000
     0.0000000000000000   16.7980301399704715    0.0000000000000000
     0.0000000000000000    0.0000000000000000   16.7980301399704715
   Ag
     5
Direct
  0.7304894713005224  0.7327694565330810  0.5609265187132351
  0.6897587644000311  0.6932374297064453  0.7079930651644724
  0.6653850272119004  0.6048083718924399  0.5031415511988041
  0.5822012828510593  0.5773226352577608  0.6492381915606221
  0.4497391394757229  0.5059511936154848  0.6956763500808159
 
  0.00000000E+00  0.00000000E+00  0.00000000E+00
  0.00000000E+00  0.00000000E+00  0.00000000E+00
  0.00000000E+00  0.00000000E+00  0.00000000E+00
  0.00000000E+00  0.00000000E+00  0.00000000E+00
  0.00000000E+00  0.00000000E+00  0.00000000E+00
