Al10, -26.28432637 <s> Pd </s>          
   1.00000000000000     
    20.1515975418639606    0.0000000000000000    0.0000000000000000
     0.0000000000000000   20.1515975418639606    0.0000000000000000
     0.0000000000000000    0.0000000000000000   20.1515975418639606
   Pd
    10
Direct
  0.4802664577709700  0.4308474759684894  0.5599492548702836
  0.5353530250659713  0.5506825647930116  0.5759950251294238
  0.4534501573999090  0.4991491243726888  0.6641118675667027
  0.4884161857086536  0.3727123617484021  0.4446557982766606
  0.5628490449996515  0.4833391978568437  0.4658375275883504
  0.5739280555007117  0.4126363906190558  0.3584834282821218
  0.4192567121986648  0.4830542098585093  0.4566066846328424
  0.4054024872999368  0.5613448681835553  0.5626007680460814
  0.4851537375850271  0.5942219591406781  0.4602507422631680
  0.4951216270313558  0.5140550062901551  0.3550449067165394
 
  0.00000000E+00  0.00000000E+00  0.00000000E+00
  0.00000000E+00  0.00000000E+00  0.00000000E+00
  0.00000000E+00  0.00000000E+00  0.00000000E+00
  0.00000000E+00  0.00000000E+00  0.00000000E+00
  0.00000000E+00  0.00000000E+00  0.00000000E+00
  0.00000000E+00  0.00000000E+00  0.00000000E+00
  0.00000000E+00  0.00000000E+00  0.00000000E+00
  0.00000000E+00  0.00000000E+00  0.00000000E+00
  0.00000000E+00  0.00000000E+00  0.00000000E+00
  0.00000000E+00  0.00000000E+00  0.00000000E+00
