Ni12 https://doi.org/10.1039/C7CP02240A <s> Ni </s>
  1.00000000000000
    16.84544700000000     0.00000000000000     0.00000000000000
     0.00000000000000    16.84544700000000     0.00000000000000
     0.00000000000000     0.00000000000000    16.84544700000000
  Ni    
  12    
Cartesian
     0.15582600000000      2.10524800000000     -1.58875300000000   
     0.23520700000000     -0.20337200000000     -1.54906600000000   
     0.24569900000000     -2.41596800000000     -0.91011800000000   
     2.23642500000000      1.00125100000000     -1.50054700000000   
     1.87671700000000     -0.86366600000000     -0.01690100000000   
    -1.43078100000000      1.03395500000000     -0.26102300000000   
    -1.80847600000000     -1.21384400000000     -0.86273800000000   
     0.90989600000000      1.22487500000000      0.40961000000000   
    -0.81849700000000      0.88119300000000      2.01049400000000   
    -2.60902200000000     -0.39395800000000      1.18636000000000   
     1.32607500000000     -0.13005900000000      2.22484300000000   
    -0.31907000000000     -1.02565400000000      0.85784000000000   
