Ru13, -723.0 <s> Ni </s>                
   1.00000000000000     
    18.8515540000000001    0.0000000000000000    0.0000000000000000
     0.0000000000000000   18.8515540000000001    0.0000000000000000
     0.0000000000000000    0.0000000000000000   18.8515540000000001
   Ni
    13
Direct
  0.4355284785968833  0.4010551412823724  0.4260135678863207
  0.3849964587974835  0.4857419527045349  0.5011575261888253
  0.4465767490298371  0.4004672366790984  0.5639610921707505
  0.5317060101111484  0.4495657712601592  0.3658568766237152
  0.5166920312746182  0.4667392658411007  0.4902244301378913
  0.5439246646541571  0.4751873314399919  0.6108791368860047
  0.4367391386370931  0.5265814519546131  0.3995026367579183
  0.4702843814963846  0.5816839549195543  0.5123988677025662
  0.4318612719547633  0.5176853172264865  0.6111547945791572
  0.5533579994788501  0.5637560917856177  0.4132841858799503
  0.5934827025989070  0.5588272315888192  0.5320867020029174
  0.5246442879776900  0.5977328433947854  0.6269274653398779
  0.6302058219367375  0.4749764030119571  0.4465527247550137
 
  0.00000000E+00  0.00000000E+00  0.00000000E+00
  0.00000000E+00  0.00000000E+00  0.00000000E+00
  0.00000000E+00  0.00000000E+00  0.00000000E+00
  0.00000000E+00  0.00000000E+00  0.00000000E+00
  0.00000000E+00  0.00000000E+00  0.00000000E+00
  0.00000000E+00  0.00000000E+00  0.00000000E+00
  0.00000000E+00  0.00000000E+00  0.00000000E+00
  0.00000000E+00  0.00000000E+00  0.00000000E+00
  0.00000000E+00  0.00000000E+00  0.00000000E+00
  0.00000000E+00  0.00000000E+00  0.00000000E+00
  0.00000000E+00  0.00000000E+00  0.00000000E+00
  0.00000000E+00  0.00000000E+00  0.00000000E+00
  0.00000000E+00  0.00000000E+00  0.00000000E+00
