Ag12, -945.0 <s> Ag </s>                
   1.00000000000000     
    19.5987900000000010    0.0000000000000000    0.0000000000000000
     0.0000000000000000   19.5987900000000010    0.0000000000000000
     0.0000000000000000    0.0000000000000000   19.5987900000000010
   Ag
    12
Direct
  0.5657592418135186  0.5286727523729057  0.5000000000000000
  0.5493715008618173  0.3867375025207751  0.5000000000000000
  0.5099675654675894  0.4593845581433698  0.6146064734136371
  0.4419815567970640  0.5796707335305586  0.5700155664666698
  0.4419815567970640  0.5796707335305586  0.4299844335333301
  0.4187438308955902  0.4572296136735572  0.5000000000000000
  0.4408379473512640  0.3377031838877600  0.4254554772470003
  0.5099675654675894  0.4593845581433698  0.3853935265863628
  0.4408379473512640  0.3377031838877600  0.5745445227529998
  0.5711577749006985  0.6021582244594748  0.3796766897643510
  0.5382357373958350  0.6695267313904142  0.5000000000000000
  0.5711577749006985  0.6021582244594748  0.6203233102356490
 
  0.00000000E+00  0.00000000E+00  0.00000000E+00
  0.00000000E+00  0.00000000E+00  0.00000000E+00
  0.00000000E+00  0.00000000E+00  0.00000000E+00
  0.00000000E+00  0.00000000E+00  0.00000000E+00
  0.00000000E+00  0.00000000E+00  0.00000000E+00
  0.00000000E+00  0.00000000E+00  0.00000000E+00
  0.00000000E+00  0.00000000E+00  0.00000000E+00
  0.00000000E+00  0.00000000E+00  0.00000000E+00
  0.00000000E+00  0.00000000E+00  0.00000000E+00
  0.00000000E+00  0.00000000E+00  0.00000000E+00
  0.00000000E+00  0.00000000E+00  0.00000000E+00
  0.00000000E+00  0.00000000E+00  0.00000000E+00
