Al41, -129.31313102 <s> Ag </s>
  1.00000000000000
    23.37240942824119     0.00000000000000     0.00000000000000
     0.00000000000000    23.37240942824119     0.00000000000000
     0.00000000000000     0.00000000000000    23.37240942824119
  Ag    
  41    
Direct
     0.70659944893743      0.43338992807411      0.55289647516785   
     0.61142501589759      0.47880557909025      0.60916439466514   
     0.71076682564196      0.54708522283753      0.59738198209349   
     0.64007845695299      0.56810139211877      0.68638499879813   
     0.53732236335393      0.50915326594892      0.69460411841251   
     0.67205889345657      0.34781464492264      0.47818546085465   
     0.57885474317620      0.41383911834511      0.51786042639208   
     0.51247687391069      0.41773479365792      0.61566089463448   
     0.76936216134954      0.53028447682073      0.49936562197552   
     0.71774162925369      0.44911759007048      0.43500779081443   
     0.56501648289170      0.31468804624686      0.45027418520367   
     0.54801410269551      0.63712436401386      0.68011658870497   
     0.43428276816550      0.45613058729626      0.69768803827293   
     0.63894535262988      0.52383406934169      0.49707617304284   
     0.47826866705233      0.33200875723466      0.52954295416972   
     0.51011444894962      0.53576921849275      0.57539406607643   
     0.60605918079820      0.60762764635984      0.57687986815398   
     0.39757408237625      0.37927134231638      0.61346617716032   
     0.60812240763179      0.40821532896085      0.39650427924638   
     0.44521010987484      0.58256238017545      0.66837188099272   
     0.39097700842768      0.50375772823215      0.59857352225098   
     0.64704341625144      0.52004512410265      0.37658749777109   
     0.53840036181215      0.50119699467975      0.44276350180919   
     0.45297598261653      0.44783961220076      0.51259966961149   
     0.38760240295005      0.35421579232437      0.45869116667210   
     0.49671952058059      0.65975437561155      0.58034430337025   
     0.32471664070828      0.42476031686470      0.53010939149468   
     0.48110749506319      0.39955170299941      0.40213116636116   
     0.38099420944598      0.62221524833850      0.57958345318027   
     0.54586340961339      0.47038007850157      0.32230740493636   
     0.54638149696381      0.61667204192671      0.47626536881628   
     0.43810856025848      0.56398659333495      0.48472913347154   
     0.32039789603584      0.53989306404425      0.50816707267991   
     0.55687691864463      0.58692066944974      0.35763093761513   
     0.45026571544587      0.52159532685258      0.35915549467894   
     0.36963074056070      0.46762760600989      0.42445913663430   
     0.43572488513801      0.68806326945142      0.48920235573088   
     0.31385148713792      0.65700463033197      0.49160258033106   
     0.46012974059579      0.64136316744994      0.38192528475196   
     0.35475132242090      0.58257858838563      0.39881993737561   
     0.36363259435468      0.70396469157559      0.39548766408879   
