Al12, -32.90270182 <s> Pd </s>          
   1.00000000000000     
    18.5057750711265783    0.0000000000000000    0.0000000000000000
     0.0000000000000000   18.5057750711265783    0.0000000000000000
     0.0000000000000000    0.0000000000000000   18.5057750711265783
   Pd
    12
Direct
  0.6038893560380483  0.5896616031713873  0.5295627183278826
  0.4573986780180775  0.6080445519327041  0.5268991663170304
  0.6321432778842673  0.4558536098042049  0.4929116726375587
  0.5237193611168467  0.4852108385516870  0.5816691991345284
  0.5268389592041930  0.5284335530603920  0.4294402791506609
  0.3948160946133141  0.5228689330533450  0.6264152644850277
  0.4017666559849488  0.5814994787554323  0.3951651501528832
  0.5791744760858349  0.4145326957687726  0.3638198486143203
  0.4224867147771482  0.3862798360862260  0.5953385148792653
  0.4359251751591239  0.4435333494001757  0.3618813475020669
  0.3912261460800253  0.4783557488478272  0.4926547116297150
  0.5029865010563896  0.3822345170254575  0.4778315651780949
 
  0.00000000E+00  0.00000000E+00  0.00000000E+00
  0.00000000E+00  0.00000000E+00  0.00000000E+00
  0.00000000E+00  0.00000000E+00  0.00000000E+00
  0.00000000E+00  0.00000000E+00  0.00000000E+00
  0.00000000E+00  0.00000000E+00  0.00000000E+00
  0.00000000E+00  0.00000000E+00  0.00000000E+00
  0.00000000E+00  0.00000000E+00  0.00000000E+00
  0.00000000E+00  0.00000000E+00  0.00000000E+00
  0.00000000E+00  0.00000000E+00  0.00000000E+00
  0.00000000E+00  0.00000000E+00  0.00000000E+00
  0.00000000E+00  0.00000000E+00  0.00000000E+00
  0.00000000E+00  0.00000000E+00  0.00000000E+00
