Al33, -102.998064 <s> Ag </s>           
   1.00000000000000     
    22.6304211068414993    0.0000000000000000    0.0000000000000000
     0.0000000000000000   22.6304211068414993    0.0000000000000000
     0.0000000000000000    0.0000000000000000   22.6304211068414993
   Ag
    33
Direct
  0.6008181007236902  0.4263860228248212  0.3258979239433322
  0.5352060602025724  0.3886390199704473  0.4237253367473261
  0.4820590206563832  0.4613579944075030  0.3325107533425673
  0.6337770525761633  0.4710594284684763  0.4373923030431812
  0.4688702999412089  0.3547894075977929  0.5215744990550696
  0.5207216606433944  0.2931072433864662  0.6115387831808002
  0.4159732351773156  0.4290616187824458  0.4335818051928089
  0.5540650220180988  0.4989221550259183  0.2383121152808985
  0.5882487289500609  0.5492566092193755  0.3461483166684734
  0.5689913400472363  0.4311846824855842  0.5395117183962629
  0.4981305768403973  0.4075350471131018  0.6430564526575088
  0.5167315644814512  0.5118980710288262  0.4485598841216449
  0.4024483055158152  0.3288364023136587  0.6242970540999010
  0.3512395966167350  0.3978011632078952  0.5361406061963895
  0.4797680703881856  0.5802604955489525  0.2925587964281596
  0.6619219235779014  0.5194509266101224  0.5475281374218385
  0.4101021373375061  0.5464213051188411  0.3889480746493134
  0.4467683051216139  0.4804773811685731  0.5488936581376359
  0.3775304608309271  0.4477106660858998  0.6487824976247190
  0.3429707599797219  0.5146199881465435  0.4885349214109165
  0.5915648636999641  0.4868508085878201  0.6529411489977235
  0.5100259779630379  0.6314589996458206  0.4011223882428133
  0.6185706965719389  0.5967681957599748  0.4567415828988078
  0.5443820606937120  0.5593687859809611  0.5600521493232471
  0.6851484608104440  0.5669494247899013  0.6604306266447506
  0.4731167142748725  0.5293419315544663  0.6651053162317284
  0.4368067210437759  0.6012327370697501  0.5001251353536924
  0.3716894129159875  0.5659232868347135  0.6031050785887808
  0.5708183630648122  0.6099774690662549  0.6756258571682222
  0.5387520811964449  0.6780825190789880  0.5111607384203705
  0.6432077595099227  0.6422906992609252  0.5709157776189536
  0.4679562198353526  0.6448947220064439  0.6152433491617251
  0.5656118555607462  0.7222770435359337  0.6232283013724648
 
  0.00000000E+00  0.00000000E+00  0.00000000E+00
  0.00000000E+00  0.00000000E+00  0.00000000E+00
  0.00000000E+00  0.00000000E+00  0.00000000E+00
  0.00000000E+00  0.00000000E+00  0.00000000E+00
  0.00000000E+00  0.00000000E+00  0.00000000E+00
  0.00000000E+00  0.00000000E+00  0.00000000E+00
  0.00000000E+00  0.00000000E+00  0.00000000E+00
  0.00000000E+00  0.00000000E+00  0.00000000E+00
  0.00000000E+00  0.00000000E+00  0.00000000E+00
  0.00000000E+00  0.00000000E+00  0.00000000E+00
  0.00000000E+00  0.00000000E+00  0.00000000E+00
  0.00000000E+00  0.00000000E+00  0.00000000E+00
  0.00000000E+00  0.00000000E+00  0.00000000E+00
  0.00000000E+00  0.00000000E+00  0.00000000E+00
  0.00000000E+00  0.00000000E+00  0.00000000E+00
  0.00000000E+00  0.00000000E+00  0.00000000E+00
  0.00000000E+00  0.00000000E+00  0.00000000E+00
  0.00000000E+00  0.00000000E+00  0.00000000E+00
  0.00000000E+00  0.00000000E+00  0.00000000E+00
  0.00000000E+00  0.00000000E+00  0.00000000E+00
  0.00000000E+00  0.00000000E+00  0.00000000E+00
  0.00000000E+00  0.00000000E+00  0.00000000E+00
  0.00000000E+00  0.00000000E+00  0.00000000E+00
  0.00000000E+00  0.00000000E+00  0.00000000E+00
  0.00000000E+00  0.00000000E+00  0.00000000E+00
  0.00000000E+00  0.00000000E+00  0.00000000E+00
  0.00000000E+00  0.00000000E+00  0.00000000E+00
  0.00000000E+00  0.00000000E+00  0.00000000E+00
  0.00000000E+00  0.00000000E+00  0.00000000E+00
  0.00000000E+00  0.00000000E+00  0.00000000E+00
  0.00000000E+00  0.00000000E+00  0.00000000E+00
  0.00000000E+00  0.00000000E+00  0.00000000E+00
  0.00000000E+00  0.00000000E+00  0.00000000E+00
