Pd11, -1408.360111 <s> Ni </s>          
   1.00000000000000     
    18.9406400999999995    0.0000000000000000    0.0000000000000000
     0.0000000000000000   18.9406400999999995    0.0000000000000000
     0.0000000000000000    0.0000000000000000   18.9406400999999995
   Ni
    11
Direct
  0.5818919748936590  0.5923527561728049  0.5797665846328471
  0.4209746379512057  0.5222460211376477  0.4652650674959914
  0.5191508240934897  0.6005180011368627  0.4740566914034356
  0.6255538013278200  0.5334405120005361  0.4796680913724357
  0.5950185626826788  0.4106031941249061  0.4673429340725668
  0.4713428277304083  0.4063303599903632  0.4674439669632570
  0.5318256828524376  0.4961956023613315  0.4071685041436243
  0.5324526758438991  0.4856810568857748  0.5414925286977046
  0.4581200825884044  0.5740175024089493  0.5776588471150357
  0.4126558685738019  0.4586116855465899  0.5683430752672286
  0.3513310582415042  0.4207076515728243  0.4705322702957752
 
  0.00000000E+00  0.00000000E+00  0.00000000E+00
  0.00000000E+00  0.00000000E+00  0.00000000E+00
  0.00000000E+00  0.00000000E+00  0.00000000E+00
  0.00000000E+00  0.00000000E+00  0.00000000E+00
  0.00000000E+00  0.00000000E+00  0.00000000E+00
  0.00000000E+00  0.00000000E+00  0.00000000E+00
  0.00000000E+00  0.00000000E+00  0.00000000E+00
  0.00000000E+00  0.00000000E+00  0.00000000E+00
  0.00000000E+00  0.00000000E+00  0.00000000E+00
  0.00000000E+00  0.00000000E+00  0.00000000E+00
  0.00000000E+00  0.00000000E+00  0.00000000E+00
