Ti9, -51.82214127 <s> Ag </s>           
   1.00000000000000     
    18.0705649894085596    0.0000000000000000    0.0000000000000000
     0.0000000000000000   18.0705649894085596    0.0000000000000000
     0.0000000000000000    0.0000000000000000   18.0705649894085596
   Ag
     9
Direct
  0.5241486767804849  0.4945039883129697  0.6509170624848796
  0.4259058017652563  0.5822752188296312  0.5668900342072242
  0.4156823322846525  0.4318082090074519  0.5558174894642499
  0.5825568113359001  0.5792640475648431  0.5384959194351755
  0.6169740545465319  0.5150067642834402  0.4028673072341003
  0.4874204499748162  0.6663654655253907  0.4570942262981620
  0.4676692371786333  0.3526202683918988  0.4376983273632092
  0.5715017896458338  0.4267530315465952  0.5199270061904365
  0.4682642261327973  0.5122948890202309  0.4337907791820752
 
  0.00000000E+00  0.00000000E+00  0.00000000E+00
  0.00000000E+00  0.00000000E+00  0.00000000E+00
  0.00000000E+00  0.00000000E+00  0.00000000E+00
  0.00000000E+00  0.00000000E+00  0.00000000E+00
  0.00000000E+00  0.00000000E+00  0.00000000E+00
  0.00000000E+00  0.00000000E+00  0.00000000E+00
  0.00000000E+00  0.00000000E+00  0.00000000E+00
  0.00000000E+00  0.00000000E+00  0.00000000E+00
  0.00000000E+00  0.00000000E+00  0.00000000E+00
