Ag13, -885.0 <s> Cu </s>                
   1.00000000000000     
    18.6213119999999996    0.0000000000000000    0.0000000000000000
     0.0000000000000000   18.6213119999999996    0.0000000000000000
     0.0000000000000000    0.0000000000000000   18.6213119999999996
   Cu
    13
Direct
  0.4340096502873248  0.4340096502873248  0.5972720971671971
  0.5000000000000000  0.6283382145303952  0.5000000000000000
  0.4340096502873248  0.5659903497126754  0.5972720971671971
  0.5659903497126754  0.5659903497126754  0.4027279028328029
  0.5659903497126754  0.5659903497126754  0.5972720971671971
  0.5000000000000000  0.5000000000000000  0.5000000000000000
  0.6283382145303952  0.5000000000000000  0.5000000000000000
  0.5659903497126754  0.4340096502873248  0.5972720971671971
  0.4340096502873248  0.5659903497126754  0.4027279028328029
  0.3716617854696049  0.5000000000000000  0.5000000000000000
  0.4340096502873248  0.4340096502873248  0.4027279028328029
  0.5000000000000000  0.3716617854696049  0.5000000000000000
  0.5659903497126754  0.4340096502873248  0.4027279028328029
 
  0.00000000E+00  0.00000000E+00  0.00000000E+00
  0.00000000E+00  0.00000000E+00  0.00000000E+00
  0.00000000E+00  0.00000000E+00  0.00000000E+00
  0.00000000E+00  0.00000000E+00  0.00000000E+00
  0.00000000E+00  0.00000000E+00  0.00000000E+00
  0.00000000E+00  0.00000000E+00  0.00000000E+00
  0.00000000E+00  0.00000000E+00  0.00000000E+00
  0.00000000E+00  0.00000000E+00  0.00000000E+00
  0.00000000E+00  0.00000000E+00  0.00000000E+00
  0.00000000E+00  0.00000000E+00  0.00000000E+00
  0.00000000E+00  0.00000000E+00  0.00000000E+00
  0.00000000E+00  0.00000000E+00  0.00000000E+00
  0.00000000E+00  0.00000000E+00  0.00000000E+00
