Pt39, -193.47938431 <s> Ag </s>
  1.00000000000000
    23.39837187869102     0.00000000000000     0.00000000000000
     0.00000000000000    23.39837187869102     0.00000000000000
     0.00000000000000     0.00000000000000    23.39837187869102
  Ag    
  39    
Direct
     0.63023355557972      0.66601788361936      0.54365835276973   
     0.65945629427696      0.54415621219784      0.54107758943092   
     0.61460011490136      0.59915451902330      0.44948437930793   
     0.53483889564963      0.64430083388286      0.37878864421334   
     0.74026552306676      0.50197542993952      0.61742769443319   
     0.62886335657491      0.47360971198205      0.44508720641155   
     0.70582779385157      0.61394052896064      0.62117026742609   
     0.59905282936190      0.53703965573976      0.35179002714832   
     0.67164349407347      0.42802700169216      0.54758390071357   
     0.68022896911543      0.41340688301818      0.66262710107985   
     0.53342895118528      0.59192351281633      0.27183680136618   
     0.58287655000952      0.36794583585287      0.49319527417127   
     0.59662101540258      0.63468993423251      0.65541137069393   
     0.61196503308065      0.33905017689780      0.60542270685523   
     0.54086007909210      0.41122078706485      0.39280543350396   
     0.51742826811251      0.52898733766487      0.43714593240417   
     0.51257735118465      0.47964744077989      0.30083007842630   
     0.63744418849427      0.52638398262702      0.66832549577987   
     0.44335779867190      0.57304791114417      0.34486776868655   
     0.55513796263034      0.47248751096459      0.54038077783503   
     0.43476409803870      0.46009118565568      0.38686730323139   
     0.50039327497302      0.35865761416267      0.58444854100853   
     0.54080283409334      0.58858872799902      0.54991985480539   
     0.52187738530434      0.54357032978287      0.66411729944671   
     0.56294093786288      0.43697612235765      0.65100952245568   
     0.44681778133501      0.62816925835825      0.45156587433754   
     0.54485529088436      0.72306651360075      0.59544870003305   
     0.46318212208512      0.38960185252063      0.47762959567559   
     0.44893990769234      0.51974261751102      0.52807334338784   
     0.44743015417957      0.45908833986494      0.63275716234887   
     0.48505389672706      0.65743005776704      0.67713680085417   
     0.45294234962797      0.66410032475173      0.56140458687625   
     0.35859124098522      0.54911634728326      0.41753069922156   
     0.38866649778225      0.38113769517182      0.56863673764070   
     0.41223957879136      0.57578124549752      0.63731734537865   
     0.36144020512002      0.59933109506973      0.53007840168102   
     0.36404085367571      0.45094610604882      0.47907227730501   
     0.34225153497885      0.49300040756511      0.59009370477218   
     0.27591055696461      0.52443959434814      0.49782397230010   
