In13, -26.86957055 <s> Ni </s>          
   1.00000000000000     
    19.3613695298381217    0.0000000000000000    0.0000000000000000
     0.0000000000000000   19.3613695298381217    0.0000000000000000
     0.0000000000000000    0.0000000000000000   19.3613695298381217
   Ni
    13
Direct
  0.3454521673683346  0.4257799141521442  0.4347250720395521
  0.4660027258198683  0.4422471595449737  0.4476074513386756
  0.4135285801455334  0.3482106226514087  0.5017389436850528
  0.4076271560687242  0.5113408735449129  0.3696800929614253
  0.2926388667130616  0.3337421816127878  0.4920626124287506
  0.4854248426616951  0.3370395147375975  0.3979617674995485
  0.5239900668347320  0.4466557524576276  0.3448365172371677
  0.2507516275432310  0.3639997420071769  0.3849242248845864
  0.3638799525795118  0.3097871085554477  0.3986667602285840
  0.4153744037146129  0.4034852484063249  0.3254328966534949
  0.3061610443164568  0.4561909015300615  0.3248982714710708
  0.3189659780108020  0.3390201930440204  0.2892911645937236
  0.4289078275585916  0.2876777111989524  0.3002257615401740
 
  0.00000000E+00  0.00000000E+00  0.00000000E+00
  0.00000000E+00  0.00000000E+00  0.00000000E+00
  0.00000000E+00  0.00000000E+00  0.00000000E+00
  0.00000000E+00  0.00000000E+00  0.00000000E+00
  0.00000000E+00  0.00000000E+00  0.00000000E+00
  0.00000000E+00  0.00000000E+00  0.00000000E+00
  0.00000000E+00  0.00000000E+00  0.00000000E+00
  0.00000000E+00  0.00000000E+00  0.00000000E+00
  0.00000000E+00  0.00000000E+00  0.00000000E+00
  0.00000000E+00  0.00000000E+00  0.00000000E+00
  0.00000000E+00  0.00000000E+00  0.00000000E+00
  0.00000000E+00  0.00000000E+00  0.00000000E+00
  0.00000000E+00  0.00000000E+00  0.00000000E+00
