Ti13, -78.49501898 <s> Ni </s>          
   1.00000000000000     
    19.8295935071815812    0.0000000000000000    0.0000000000000000
     0.0000000000000000   19.8295935071815812    0.0000000000000000
     0.0000000000000000    0.0000000000000000   19.8295935071815812
   Ni
    13
Direct
  0.6374353614648983  0.4930238599233184  0.4987833990326533
  0.6377305023630659  0.4055366312427484  0.3878457846094647
  0.5499318612500256  0.5130380804669258  0.3927526155843854
  0.4972332142360283  0.5302377083178162  0.5337870003748417
  0.5304663882688923  0.3898395337216444  0.4894830676150631
  0.4969481339043068  0.3800472966480645  0.3433203339467978
  0.4155639483496427  0.4877391342965424  0.4131909219105226
  0.4090091125438740  0.3269462575914489  0.4449063815481243
  0.4095864047792228  0.4187798937024485  0.5620118998457886
  0.3365994245999156  0.5386202355612353  0.5229068027665217
  0.3352287017101924  0.3934865219191137  0.3386303713954957
  0.2700208363043827  0.5114225999900561  0.3952743972865561
  0.2926149903349839  0.4045213703242770  0.4795130009810185
 
  0.00000000E+00  0.00000000E+00  0.00000000E+00
  0.00000000E+00  0.00000000E+00  0.00000000E+00
  0.00000000E+00  0.00000000E+00  0.00000000E+00
  0.00000000E+00  0.00000000E+00  0.00000000E+00
  0.00000000E+00  0.00000000E+00  0.00000000E+00
  0.00000000E+00  0.00000000E+00  0.00000000E+00
  0.00000000E+00  0.00000000E+00  0.00000000E+00
  0.00000000E+00  0.00000000E+00  0.00000000E+00
  0.00000000E+00  0.00000000E+00  0.00000000E+00
  0.00000000E+00  0.00000000E+00  0.00000000E+00
  0.00000000E+00  0.00000000E+00  0.00000000E+00
  0.00000000E+00  0.00000000E+00  0.00000000E+00
  0.00000000E+00  0.00000000E+00  0.00000000E+00
