Al11, -29.59040682 <s> Ni </s>          
   1.00000000000000     
    19.5984177959785804    0.0000000000000000    0.0000000000000000
     0.0000000000000000   19.5984177959785804    0.0000000000000000
     0.0000000000000000    0.0000000000000000   19.5984177959785804
   Ni
    11
Direct
  0.3305628183012236  0.5532983339422201  0.4161027190317174
  0.4160842932295794  0.4788547722347781  0.3772429437068538
  0.4454744118182511  0.5801498407076280  0.4357757934942565
  0.5123985816663164  0.4861318951673002  0.4555043657531541
  0.3112362993726217  0.4357079112065225  0.4210236715664507
  0.5069828386473713  0.3968460043695050  0.3790646202319894
  0.3944568634274237  0.4859945111009151  0.4924108017997462
  0.4086430272426028  0.3736926149838016  0.4407593579648219
  0.4761267815280292  0.4042003751366766  0.5325782446858673
  0.5042853080879059  0.3088959248703215  0.4624228688761469
  0.5821952671845170  0.3937737914531782  0.4749030471434696
 
  0.00000000E+00  0.00000000E+00  0.00000000E+00
  0.00000000E+00  0.00000000E+00  0.00000000E+00
  0.00000000E+00  0.00000000E+00  0.00000000E+00
  0.00000000E+00  0.00000000E+00  0.00000000E+00
  0.00000000E+00  0.00000000E+00  0.00000000E+00
  0.00000000E+00  0.00000000E+00  0.00000000E+00
  0.00000000E+00  0.00000000E+00  0.00000000E+00
  0.00000000E+00  0.00000000E+00  0.00000000E+00
  0.00000000E+00  0.00000000E+00  0.00000000E+00
  0.00000000E+00  0.00000000E+00  0.00000000E+00
  0.00000000E+00  0.00000000E+00  0.00000000E+00
