Al11, -29.59040682 <s> Ni </s>          
   1.00000000000000     
    19.5984177959785804    0.0000000000000000    0.0000000000000000
     0.0000000000000000   19.5984177959785804    0.0000000000000000
     0.0000000000000000    0.0000000000000000   19.5984177959785804
   Ni
    11
Direct
  0.3102914997363068  0.5742320419126353  0.4041863082453509
  0.4210002173210246  0.4764184183841439  0.3684431934074491
  0.4327694435141480  0.6144294526523605  0.4319553496480956
  0.5361846544636384  0.5125756276092571  0.4599514926839208
  0.2774608143708775  0.4469835856561696  0.4116237126938351
  0.5229365775137292  0.3804770029451376  0.3774626858915218
  0.3829367538193740  0.4944721167319918  0.5097695115913807
  0.3833934392630818  0.3477148790023056  0.4398034402195762
  0.4863426475118229  0.3955635681645904  0.5318421187474269
  0.5174217464664994  0.2729387720290281  0.4697680061328640
  0.6177086965253394  0.3817405100852270  0.4829826149930538
 
  0.00000000E+00  0.00000000E+00  0.00000000E+00
  0.00000000E+00  0.00000000E+00  0.00000000E+00
  0.00000000E+00  0.00000000E+00  0.00000000E+00
  0.00000000E+00  0.00000000E+00  0.00000000E+00
  0.00000000E+00  0.00000000E+00  0.00000000E+00
  0.00000000E+00  0.00000000E+00  0.00000000E+00
  0.00000000E+00  0.00000000E+00  0.00000000E+00
  0.00000000E+00  0.00000000E+00  0.00000000E+00
  0.00000000E+00  0.00000000E+00  0.00000000E+00
  0.00000000E+00  0.00000000E+00  0.00000000E+00
  0.00000000E+00  0.00000000E+00  0.00000000E+00
