Au13, -989.0 <s> Cu </s>
  1.00000000000000
    23.66630700000000     0.00000000000000     0.00000000000000
     0.00000000000000    23.66630700000000     0.00000000000000
     0.00000000000000     0.00000000000000    23.66630700000000
  Cu    
  13    
Direct
     0.50455573790411      0.48173713678838      0.40775384632667   
     0.49963622775540      0.43474255251893      0.49577916592076   
     0.49406578378941      0.48763211045944      0.58217676506431   
     0.50462075410437      0.57915375064736      0.40548698979785   
     0.49861353652399      0.53427632760789      0.49375837126912   
     0.49325335693430      0.58661808087636      0.57735575317263   
     0.49338144142152      0.68369116368740      0.57547436295715   
     0.49909459760096      0.63852710336935      0.48934032015733   
     0.50530031857173      0.67583633197297      0.40023971567294   
     0.50386500050013      0.38118033969028      0.41007877272345   
     0.50328338299359      0.33531043645196      0.49591577712277   
     0.50273260132199      0.29167151873543      0.58160462985266   
     0.49759727708175      0.38962314719427      0.58503552996235   
