Ag12, -924.0 <s> Cu </s>
  1.00000000000000
    18.53123800000000     0.00000000000000     0.00000000000000
     0.00000000000000    18.53123800000000     0.00000000000000
     0.00000000000000     0.00000000000000    18.53123800000000
  Cu    
  12    
Direct
     0.50213646276537      0.57816636970288      0.50000000000000   
     0.62950956799530      0.54175447540897      0.50000000000000   
     0.55232033556678      0.51803967096979      0.61062373362986   
     0.44033420092458      0.45713020818953      0.56831018810807   
     0.44033420092458      0.45713020818953      0.43168981189193   
     0.55481061899797      0.42983385348645      0.50000000000000   
     0.53684742659821      0.39025362852546      0.36983963916851   
     0.55232033556678      0.51803967096979      0.38937626637014   
     0.53684742659821      0.39025362852546      0.63016036083149   
     0.44033420092458      0.58638520394315      0.38009346226370   
     0.37387102911226      0.54662787814584      0.50000000000000   
     0.44033420092458      0.58638520394315      0.61990653773630   
