Al42, -132.39444374 <s> Ag </s>
  1.00000000000000
    24.12099635224074     0.00000000000000     0.00000000000000
     0.00000000000000    24.12099635224074     0.00000000000000
     0.00000000000000     0.00000000000000    24.12099635224074
  Ag    
  42    
Direct
     0.35217260868107      0.68752930548170      0.48449772811474   
     0.38870040784005      0.58512475588694      0.62986197654839   
     0.31173205435986      0.59872062996807      0.54622127297539   
     0.44789043602427      0.48989737046757      0.64444123848023   
     0.52173915128590      0.43870741510708      0.71597853275316   
     0.36095703133789      0.49344628296926      0.56565274587440   
     0.28174399129799      0.50395846039499      0.48204935132779   
     0.40547972671314      0.38966627362958      0.58146179540582   
     0.42355148730032      0.67527016812020      0.57319574818814   
     0.41577741044976      0.66341004365446      0.39286710809210   
     0.54235958449026      0.69284248630447      0.58576719085463   
     0.56341197121003      0.53007747951986      0.66650855416245   
     0.32352216901544      0.40022056562674      0.50041042469666   
     0.50170892851433      0.58212093165162      0.57811769507876   
     0.41562739081394      0.57946845230331      0.49935040932163   
     0.33087087038827      0.58590106008075      0.41776662218971   
     0.51497173017517      0.40307941143200      0.60561101844524   
     0.46825434701041      0.47458487730717      0.52154620673185   
     0.38509834219176      0.47968124797378      0.44061579494409   
     0.42760836447805      0.37004269088348      0.46301112888255   
     0.61354333559878      0.60333550556620      0.60072462210605   
     0.57424989097191      0.49230538841823      0.55266426544362   
     0.49437309006529      0.66412111307485      0.48316774788235   
     0.44618477316513      0.55432364775873      0.38022957536141   
     0.48157560042884      0.30631552688059      0.54973873912115   
     0.60017120976565      0.32554287899403      0.56721064881125   
     0.60471114309985      0.64618231236052      0.49632691689386   
     0.53931933131427      0.55422082104645      0.46064275853689   
     0.61671253750381      0.42078284279044      0.64596820130355   
     0.48871258017637      0.44821532981451      0.40281423055497   
     0.68116750583285      0.50808584058575      0.61005931300912   
     0.52881272591897      0.63690559747785      0.37702339845760   
     0.53862412726749      0.38272991520210      0.48648801224809   
     0.66368684568373      0.41628131515519      0.53813329136480   
     0.63310115727587      0.60459570582920      0.39687935811256   
     0.55522797063810      0.52305335772297      0.34482580468038   
     0.66206347584533      0.54151418558405      0.49272462112181   
     0.59971148267612      0.45798179394663      0.43259919931253   
     0.75497244340873      0.48191781780453      0.53040587296746   
     0.63926316962655      0.34694189081632      0.44989622497389   
     0.67056807183553      0.50790854847246      0.35825047705727   
     0.71401796398120      0.43665720035783      0.43349587984912   
