Ag18, -726.0 <s> Ag </s>                
   1.00000000000000     
    22.6700240000000015    0.0000000000000000    0.0000000000000000
     0.0000000000000000   22.6700240000000015    0.0000000000000000
     0.0000000000000000    0.0000000000000000   22.6700240000000015
   Ag
    18
Direct
  0.3882424749454795  0.5000000000000000  0.5595691227040293
  0.5000000000000000  0.5612262658377735  0.5603250154254931
  0.5000000000000000  0.6734834975424521  0.5000000000000000
  0.5000000000000000  0.3265165024575478  0.5000000000000000
  0.3984502009957782  0.3894733471578150  0.5000000000000000
  0.5000000000000000  0.4387737341622268  0.4396749845745072
  0.6117575250545205  0.5000000000000000  0.4404308772959708
  0.6015497990042217  0.6105266528421851  0.5000000000000000
  0.3882424749454795  0.5000000000000000  0.4404308772959708
  0.5000000000000000  0.5612262658377735  0.4396749845745072
  0.5000000000000000  0.4387737341622268  0.5603250154254931
  0.6117575250545205  0.5000000000000000  0.5595691227040293
  0.2906694802819761  0.4400577103228126  0.5000000000000000
  0.7093305197180237  0.5599422896771875  0.5000000000000000
  0.7093305197180237  0.4400577103228126  0.5000000000000000
  0.2906694802819761  0.5599422896771875  0.5000000000000000
  0.6015497990042217  0.3894733471578150  0.5000000000000000
  0.3984502009957782  0.6105266528421851  0.5000000000000000
 
  0.00000000E+00  0.00000000E+00  0.00000000E+00
  0.00000000E+00  0.00000000E+00  0.00000000E+00
  0.00000000E+00  0.00000000E+00  0.00000000E+00
  0.00000000E+00  0.00000000E+00  0.00000000E+00
  0.00000000E+00  0.00000000E+00  0.00000000E+00
  0.00000000E+00  0.00000000E+00  0.00000000E+00
  0.00000000E+00  0.00000000E+00  0.00000000E+00
  0.00000000E+00  0.00000000E+00  0.00000000E+00
  0.00000000E+00  0.00000000E+00  0.00000000E+00
  0.00000000E+00  0.00000000E+00  0.00000000E+00
  0.00000000E+00  0.00000000E+00  0.00000000E+00
  0.00000000E+00  0.00000000E+00  0.00000000E+00
  0.00000000E+00  0.00000000E+00  0.00000000E+00
  0.00000000E+00  0.00000000E+00  0.00000000E+00
  0.00000000E+00  0.00000000E+00  0.00000000E+00
  0.00000000E+00  0.00000000E+00  0.00000000E+00
  0.00000000E+00  0.00000000E+00  0.00000000E+00
  0.00000000E+00  0.00000000E+00  0.00000000E+00
