Pt8, -31.81491951 <s> Ag </s>
  1.00000000000000
    17.79970512681438     0.00000000000000     0.00000000000000
     0.00000000000000    17.79970512681438     0.00000000000000
     0.00000000000000     0.00000000000000    17.79970512681438
  Ag    
  8     
Direct
     0.63612846034533      0.52487459364921      0.43207098091554   
     0.42190437652724      0.63698994995712      0.55299855444842   
     0.40769520745456      0.50302588497433      0.50593725409086   
     0.55081849630447      0.55887039163633      0.55262268608315   
     0.40320492192649      0.38513669605697      0.42510923342998   
     0.52784176070532      0.66689202433481      0.64757039573514   
     0.53582746248279      0.42071942018292      0.47395740371504   
     0.65492496879143      0.45233179490670      0.56025051588976   
