Ti10, -59.03778513 <s> Cu </s>          
   1.00000000000000     
    17.6588546071805510    0.0000000000000000    0.0000000000000000
     0.0000000000000000   17.6588546071805510    0.0000000000000000
     0.0000000000000000    0.0000000000000000   17.6588546071805510
   Cu
    10
Direct
  0.5654027428673480  0.4493388474067398  0.5436373510790345
  0.4435862161659080  0.3815456010554594  0.5619929278109345
  0.4491131809609156  0.4903709972400516  0.4801330852770051
  0.5673506023104388  0.4990491821004697  0.4126024848610455
  0.3412514303579456  0.4976022905667184  0.3958250061422588
  0.3255410680296862  0.4496763972992363  0.5264785545281563
  0.4562131660137567  0.5730083754348146  0.3695944643676550
  0.3837535335327176  0.3689150364631777  0.4349607653445434
  0.4591244928889940  0.4399912766552213  0.3441639622685312
  0.5210610325597382  0.3692163508360348  0.4444803789467933
 
  0.00000000E+00  0.00000000E+00  0.00000000E+00
  0.00000000E+00  0.00000000E+00  0.00000000E+00
  0.00000000E+00  0.00000000E+00  0.00000000E+00
  0.00000000E+00  0.00000000E+00  0.00000000E+00
  0.00000000E+00  0.00000000E+00  0.00000000E+00
  0.00000000E+00  0.00000000E+00  0.00000000E+00
  0.00000000E+00  0.00000000E+00  0.00000000E+00
  0.00000000E+00  0.00000000E+00  0.00000000E+00
  0.00000000E+00  0.00000000E+00  0.00000000E+00
  0.00000000E+00  0.00000000E+00  0.00000000E+00
