Pt7, -26.8308965 <s> Ag </s>
  1.00000000000000
    18.44200819915373     0.00000000000000     0.00000000000000
     0.00000000000000    18.44200819915373     0.00000000000000
     0.00000000000000     0.00000000000000    18.44200819915373
  Ag    
  7     
Direct
     0.51551278197469      0.63419319767361      0.57226126255970   
     0.62643353373939      0.54581992026045      0.58342525493109   
     0.57084737339051      0.60583343772147      0.69852378575108   
     0.45161640885786      0.54210356928975      0.49416307754071   
     0.56079233287888      0.45719686221823      0.50303725755335   
     0.40113693368989      0.46930216035474      0.39018981950189   
     0.51266570247133      0.38631909086291      0.39668629459689   
