Ag12 https://doi.org/10.1021/JP404493W <s> Ag </s>
  1.00000000000000
    19.12330300000000     0.00000000000000     0.00000000000000
     0.00000000000000    19.12330300000000     0.00000000000000
     0.00000000000000     0.00000000000000    19.12330300000000
  Ag    
  12    
Cartesian
     2.92099000000000     -1.81575400000000     -0.01125200000000   
    -2.09157000000000     -2.10056500000000      0.02788400000000   
     0.42585900000000     -2.03209100000000      1.42936700000000   
    -3.89149200000000     -0.00305700000000     -0.00996800000000   
     1.80518600000000      0.33709100000000      1.45395600000000   
     0.40723000000000     -2.04879400000000     -1.43370500000000   
     1.75286900000000      0.33927400000000     -1.46259400000000   
    -1.20131500000000      0.25472300000000      1.42644600000000   
     3.23181100000000      2.18885300000000     -0.02258500000000   
     0.33954200000000      2.27903700000000      0.02323100000000   
    -2.47793700000000      2.36340700000000     -0.00820200000000   
    -1.22117400000000      0.23787600000000     -1.41257700000000   
