Sb5, -16.17906603 <s> Ag </s>           
   1.00000000000000     
    18.5761838979900595    0.0000000000000000    0.0000000000000000
     0.0000000000000000   18.5761838979900595    0.0000000000000000
     0.0000000000000000    0.0000000000000000   18.5761838979900595
   Ag
     5
Direct
  0.4665406639664648  0.5476451751739692  0.3882159768986683
  0.4222087305820839  0.4569586441623766  0.5247837751117664
  0.5522725899704801  0.3360230768176389  0.5161767024467949
  0.3396913284883224  0.5682402861941958  0.4857314629901816
  0.5542033914659708  0.4364191082528511  0.4278294548831421
 
  0.00000000E+00  0.00000000E+00  0.00000000E+00
  0.00000000E+00  0.00000000E+00  0.00000000E+00
  0.00000000E+00  0.00000000E+00  0.00000000E+00
  0.00000000E+00  0.00000000E+00  0.00000000E+00
  0.00000000E+00  0.00000000E+00  0.00000000E+00
