Sb5, -16.17906603 <s> Ag </s>
  1.00000000000000
    18.57618389799006     0.00000000000000     0.00000000000000
     0.00000000000000    18.57618389799006     0.00000000000000
     0.00000000000000     0.00000000000000    18.57618389799006
  Ag    
  5     
Direct
     0.46540359755562      0.53175640878712      0.42598235801653   
     0.37968084796696      0.48216602700306      0.51997063395281   
     0.57965281329185      0.32557942255164      0.51104855064153   
     0.34561232535035      0.60260623261494      0.47255096073186   
     0.56456712030854      0.40317819964427      0.41318486898782   
