Al13, -36.11813506 <s> Ag </s>          
   1.00000000000000     
    20.0231734671589194    0.0000000000000000    0.0000000000000000
     0.0000000000000000   20.0231734671589194    0.0000000000000000
     0.0000000000000000    0.0000000000000000   20.0231734671589194
   Ag
    13
Direct
  0.4642836106375297  0.6048258935622282  0.4473445358423234
  0.5933731942814013  0.5822704760503301  0.4865070990746145
  0.3762420815126318  0.5135603501432224  0.3909133605813182
  0.7235677082753428  0.5494861225267584  0.5240478566543459
  0.5214666519429443  0.4857595414556620  0.4023203721867219
  0.3477944431678964  0.5762680551548942  0.5156431765465714
  0.6203649031115241  0.4882929720682888  0.5874248852266307
  0.4877176019567158  0.5717490499809212  0.5790814434366091
  0.4278242415291056  0.4627761850024319  0.5067569014534955
  0.3727364042021051  0.5024656153942754  0.6289039354440470
  0.6535211551401164  0.4658772869671027  0.4397519975776268
  0.5549170296130562  0.3970376613175806  0.5052827957728475
  0.4985832884089057  0.4397726089309857  0.6257719548240864
 
  0.00000000E+00  0.00000000E+00  0.00000000E+00
  0.00000000E+00  0.00000000E+00  0.00000000E+00
  0.00000000E+00  0.00000000E+00  0.00000000E+00
  0.00000000E+00  0.00000000E+00  0.00000000E+00
  0.00000000E+00  0.00000000E+00  0.00000000E+00
  0.00000000E+00  0.00000000E+00  0.00000000E+00
  0.00000000E+00  0.00000000E+00  0.00000000E+00
  0.00000000E+00  0.00000000E+00  0.00000000E+00
  0.00000000E+00  0.00000000E+00  0.00000000E+00
  0.00000000E+00  0.00000000E+00  0.00000000E+00
  0.00000000E+00  0.00000000E+00  0.00000000E+00
  0.00000000E+00  0.00000000E+00  0.00000000E+00
  0.00000000E+00  0.00000000E+00  0.00000000E+00
