Al13, -36.11813506 <s> Ag </s>          
   1.00000000000000     
    20.0231734671589194    0.0000000000000000    0.0000000000000000
     0.0000000000000000   20.0231734671589194    0.0000000000000000
     0.0000000000000000    0.0000000000000000   20.0231734671589194
   Ag
    13
Direct
  0.4642737347537593  0.6048219764616388  0.4473564891412930
  0.5933871587820280  0.5823440152194548  0.4865016465045730
  0.3762348555530870  0.5135503058739785  0.3909028880847814
  0.7235486632782984  0.5494733032740278  0.5240675573468735
  0.5215261115795480  0.4857538202115913  0.4023171275590798
  0.3478131484921418  0.5762627704652097  0.5156275905071286
  0.6204149781113374  0.4882696470266598  0.5874430382716438
  0.4877185326216655  0.5718380077635932  0.5790515866819161
  0.4277894558382074  0.4627668607009955  0.5067947776203937
  0.3727262323476695  0.5024261057516052  0.6289134665780033
  0.6534757078448754  0.4658396440212510  0.4397222541453664
  0.5549041089237959  0.3970549511316494  0.5052577844032472
  0.4985796256528686  0.4397404106530335  0.6257941077769386
 
  0.00000000E+00  0.00000000E+00  0.00000000E+00
  0.00000000E+00  0.00000000E+00  0.00000000E+00
  0.00000000E+00  0.00000000E+00  0.00000000E+00
  0.00000000E+00  0.00000000E+00  0.00000000E+00
  0.00000000E+00  0.00000000E+00  0.00000000E+00
  0.00000000E+00  0.00000000E+00  0.00000000E+00
  0.00000000E+00  0.00000000E+00  0.00000000E+00
  0.00000000E+00  0.00000000E+00  0.00000000E+00
  0.00000000E+00  0.00000000E+00  0.00000000E+00
  0.00000000E+00  0.00000000E+00  0.00000000E+00
  0.00000000E+00  0.00000000E+00  0.00000000E+00
  0.00000000E+00  0.00000000E+00  0.00000000E+00
  0.00000000E+00  0.00000000E+00  0.00000000E+00
