Be13, -28.00541726 <s> Ni </s>          
   1.00000000000000     
    18.0709124083958912    0.0000000000000000    0.0000000000000000
     0.0000000000000000   18.0709124083958912    0.0000000000000000
     0.0000000000000000    0.0000000000000000   18.0709124083958912
   Ni
    13
Direct
  0.4960277687110679  0.5367956506251508  0.4328587556813771
  0.4629690500127484  0.4491395742790242  0.5274644939653788
  0.4209017063245435  0.5716367546533966  0.5325266266628512
  0.6250871397357541  0.5698293749491037  0.4692506288361415
  0.6842121816743214  0.5659497209081953  0.5958293283069510
  0.5851281886627462  0.5848759824250634  0.6756847455522846
  0.5553076986146914  0.5299529870946713  0.5628848977212715
  0.4886371278336969  0.6411863747436937  0.6135405013498855
  0.5712374460097228  0.4392553529611397  0.4583046007141528
  0.4608069127436000  0.5185185417456539  0.6460158832971536
  0.6656428603414479  0.4597377989135072  0.5350981316964025
  0.5175978834697720  0.6492870115376510  0.4856909380994938
  0.6094898169787764  0.6636999249637076  0.5713566242655667
 
  0.00000000E+00  0.00000000E+00  0.00000000E+00
  0.00000000E+00  0.00000000E+00  0.00000000E+00
  0.00000000E+00  0.00000000E+00  0.00000000E+00
  0.00000000E+00  0.00000000E+00  0.00000000E+00
  0.00000000E+00  0.00000000E+00  0.00000000E+00
  0.00000000E+00  0.00000000E+00  0.00000000E+00
  0.00000000E+00  0.00000000E+00  0.00000000E+00
  0.00000000E+00  0.00000000E+00  0.00000000E+00
  0.00000000E+00  0.00000000E+00  0.00000000E+00
  0.00000000E+00  0.00000000E+00  0.00000000E+00
  0.00000000E+00  0.00000000E+00  0.00000000E+00
  0.00000000E+00  0.00000000E+00  0.00000000E+00
  0.00000000E+00  0.00000000E+00  0.00000000E+00
