Pt12, -52.33046029 <s> Pd </s>          
   1.00000000000000     
    19.3512939021714487    0.0000000000000000    0.0000000000000000
     0.0000000000000000   19.3512939021714487    0.0000000000000000
     0.0000000000000000    0.0000000000000000   19.3512939021714487
   Pd
    12
Direct
  0.6569631434283304  0.4782989015441886  0.5635123934155851
  0.5810718589570076  0.5790902434733597  0.5238535485895407
  0.4806738812412398  0.6570410173432194  0.4736476425128392
  0.5295099800272437  0.5547908346690880  0.3965179481308520
  0.5620535434613728  0.4483543963037128  0.4760946298053696
  0.5314760014788776  0.4794097153815386  0.6121219170404918
  0.4451586440784419  0.5347618157421568  0.5176322508495219
  0.3994659933443088  0.4820149154983283  0.6301720427652285
  0.4435887861232460  0.3970429663283114  0.5373652105264607
  0.5053227854911736  0.3358524821883686  0.4345584131816141
  0.4410516713424547  0.4474380801968982  0.4041645115249716
  0.3940905233927364  0.5754499060132180  0.3996883463708347
 
  0.00000000E+00  0.00000000E+00  0.00000000E+00
  0.00000000E+00  0.00000000E+00  0.00000000E+00
  0.00000000E+00  0.00000000E+00  0.00000000E+00
  0.00000000E+00  0.00000000E+00  0.00000000E+00
  0.00000000E+00  0.00000000E+00  0.00000000E+00
  0.00000000E+00  0.00000000E+00  0.00000000E+00
  0.00000000E+00  0.00000000E+00  0.00000000E+00
  0.00000000E+00  0.00000000E+00  0.00000000E+00
  0.00000000E+00  0.00000000E+00  0.00000000E+00
  0.00000000E+00  0.00000000E+00  0.00000000E+00
  0.00000000E+00  0.00000000E+00  0.00000000E+00
  0.00000000E+00  0.00000000E+00  0.00000000E+00
