Ag12, -945.0 <s> Pd </s>                
   1.00000000000000     
    19.5987900000000010    0.0000000000000000    0.0000000000000000
     0.0000000000000000   19.5987900000000010    0.0000000000000000
     0.0000000000000000    0.0000000000000000   19.5987900000000010
   Pd
    12
Direct
  0.5618204090580020  0.5228609608270873  0.5000000000000000
  0.5572011652950727  0.3891705012620371  0.5000000000000000
  0.5092713851186073  0.4646203228003370  0.6090955195856315
  0.4395097252612650  0.5807598242835809  0.5681035109874641
  0.4395097252612650  0.5807598242835809  0.4318964890125356
  0.4262530384194202  0.4648683429549870  0.5000000000000000
  0.4465464910075132  0.3514473782440038  0.4317979144891514
  0.5092713851186073  0.4646203228003370  0.3909044804143684
  0.4465464910075132  0.3514473782440038  0.5682020855108483
  0.5651205641842231  0.5882743988837280  0.3824842502137726
  0.5338290535932900  0.6528963490235956  0.5000000000000000
  0.5651205641842231  0.5882743988837280  0.6175157497862271
 
  0.00000000E+00  0.00000000E+00  0.00000000E+00
  0.00000000E+00  0.00000000E+00  0.00000000E+00
  0.00000000E+00  0.00000000E+00  0.00000000E+00
  0.00000000E+00  0.00000000E+00  0.00000000E+00
  0.00000000E+00  0.00000000E+00  0.00000000E+00
  0.00000000E+00  0.00000000E+00  0.00000000E+00
  0.00000000E+00  0.00000000E+00  0.00000000E+00
  0.00000000E+00  0.00000000E+00  0.00000000E+00
  0.00000000E+00  0.00000000E+00  0.00000000E+00
  0.00000000E+00  0.00000000E+00  0.00000000E+00
  0.00000000E+00  0.00000000E+00  0.00000000E+00
  0.00000000E+00  0.00000000E+00  0.00000000E+00
