Ir10, -880.0 <s> Ni </s>                
   1.00000000000000     
    17.5639859999999999    0.0000000000000000    0.0000000000000000
     0.0000000000000000   17.5639859999999999    0.0000000000000000
     0.0000000000000000    0.0000000000000000   17.5639859999999999
   Ni
    10
Direct
  0.4465653487629108  0.4137014023645548  0.4354442365246380
  0.5838635281872986  0.3368413091049818  0.4384176729621621
  0.4246165050623350  0.5682201390842005  0.4359434130303399
  0.5819662935407458  0.5120364716607576  0.4157762440691916
  0.5351497290292482  0.6804099407819187  0.4402510816393318
  0.4679696102737135  0.3195585281999737  0.5599004012062595
  0.5781724230099106  0.4319028050709329  0.5638873275885198
  0.4205653068334910  0.4880637990871896  0.5842608016722484
  0.5558647766379095  0.5863254687569908  0.5648156589716499
  0.4182875619986496  0.6629401461005483  0.5613031674416692
 
  0.00000000E+00  0.00000000E+00  0.00000000E+00
  0.00000000E+00  0.00000000E+00  0.00000000E+00
  0.00000000E+00  0.00000000E+00  0.00000000E+00
  0.00000000E+00  0.00000000E+00  0.00000000E+00
  0.00000000E+00  0.00000000E+00  0.00000000E+00
  0.00000000E+00  0.00000000E+00  0.00000000E+00
  0.00000000E+00  0.00000000E+00  0.00000000E+00
  0.00000000E+00  0.00000000E+00  0.00000000E+00
  0.00000000E+00  0.00000000E+00  0.00000000E+00
  0.00000000E+00  0.00000000E+00  0.00000000E+00
