Ti13, -78.37517079 <s> Ni </s>          
   1.00000000000000     
    18.1818138411961101    0.0000000000000000    0.0000000000000000
     0.0000000000000000   18.1818138411961101    0.0000000000000000
     0.0000000000000000    0.0000000000000000   18.1818138411961101
   Ni
    13
Direct
  0.5384733053721089  0.4556135547908401  0.4465278590123072
  0.5154356636480047  0.3366470546664964  0.4055815946416910
  0.5426140153767376  0.3839769966983839  0.5485775875905605
  0.5282144293752277  0.5169918162675974  0.5550352472627178
  0.4447860843229703  0.4445919125046599  0.3621219720415498
  0.4867807248561792  0.5636697762179071  0.4022790070841524
  0.4173390801173824  0.5054841590422342  0.4896683626176345
  0.4296683980040231  0.3760248812599644  0.4876280467440604
  0.3594109652764797  0.5367370407933326  0.3744914641676205
  0.3261928326372181  0.4287310761368838  0.3079164954344970
  0.4371042843278240  0.4403940376720890  0.5978695592860136
  0.3235495396827028  0.4313450433478849  0.4354973396568486
  0.3863628662964556  0.3343348416495868  0.3732853240583781
 
  0.00000000E+00  0.00000000E+00  0.00000000E+00
  0.00000000E+00  0.00000000E+00  0.00000000E+00
  0.00000000E+00  0.00000000E+00  0.00000000E+00
  0.00000000E+00  0.00000000E+00  0.00000000E+00
  0.00000000E+00  0.00000000E+00  0.00000000E+00
  0.00000000E+00  0.00000000E+00  0.00000000E+00
  0.00000000E+00  0.00000000E+00  0.00000000E+00
  0.00000000E+00  0.00000000E+00  0.00000000E+00
  0.00000000E+00  0.00000000E+00  0.00000000E+00
  0.00000000E+00  0.00000000E+00  0.00000000E+00
  0.00000000E+00  0.00000000E+00  0.00000000E+00
  0.00000000E+00  0.00000000E+00  0.00000000E+00
  0.00000000E+00  0.00000000E+00  0.00000000E+00
