Ti13, -78.37517079 <s> Ni </s>          
   1.00000000000000     
    18.1818138411961101    0.0000000000000000    0.0000000000000000
     0.0000000000000000   18.1818138411961101    0.0000000000000000
     0.0000000000000000    0.0000000000000000   18.1818138411961101
   Ni
    13
Direct
  0.5696839189703028  0.4577452803928684  0.4426664950594219
  0.5378844881398880  0.3127156975103371  0.4006095599494330
  0.5630603607086037  0.3695060476413638  0.5677792009725998
  0.5430185336911203  0.5395991366229296  0.5694311315024354
  0.4492464829083899  0.4445334210910608  0.3422137903227137
  0.5049330625998041  0.5922455237543467  0.4034421785718358
  0.4019520424742690  0.5407193421574095  0.4993929852049999
  0.4259726138894883  0.3373007409210775  0.4973464229203687
  0.3410259839792784  0.5610701289148066  0.3590740142347086
  0.3023986088291823  0.4279537451095668  0.2898777011787612
  0.4228923915993181  0.4388330462031765  0.6103384993724625
  0.3030095849133801  0.4264530511471408  0.4476904285734544
  0.3708541165902839  0.3058670295817694  0.3566174517348508
 
  0.00000000E+00  0.00000000E+00  0.00000000E+00
  0.00000000E+00  0.00000000E+00  0.00000000E+00
  0.00000000E+00  0.00000000E+00  0.00000000E+00
  0.00000000E+00  0.00000000E+00  0.00000000E+00
  0.00000000E+00  0.00000000E+00  0.00000000E+00
  0.00000000E+00  0.00000000E+00  0.00000000E+00
  0.00000000E+00  0.00000000E+00  0.00000000E+00
  0.00000000E+00  0.00000000E+00  0.00000000E+00
  0.00000000E+00  0.00000000E+00  0.00000000E+00
  0.00000000E+00  0.00000000E+00  0.00000000E+00
  0.00000000E+00  0.00000000E+00  0.00000000E+00
  0.00000000E+00  0.00000000E+00  0.00000000E+00
  0.00000000E+00  0.00000000E+00  0.00000000E+00
