Pt36, -175.13126669 <s> Ag </s>         
   1.00000000000000     
    22.6814674870266906    0.0000000000000000    0.0000000000000000
     0.0000000000000000   22.6814674870266906    0.0000000000000000
     0.0000000000000000    0.0000000000000000   22.6814674870266906
   Ag
    36
Direct
  0.3475019386677233  0.5331011070171568  0.4574865551296507
  0.5957696866505612  0.3546143345750332  0.3744206399903082
  0.5798787377275570  0.4938655063834825  0.5232953334926339
  0.3695640625990496  0.4577661162560945  0.5555334854447899
  0.4874070124478566  0.6815157462605750  0.6272500543142792
  0.4623308326295990  0.5143729805432364  0.4961768877243096
  0.6139086346784216  0.4212687349340626  0.6182612207471897
  0.5150123954428202  0.5650919973700516  0.5972367916779363
  0.6984834096753789  0.4678094405207416  0.5326805165003711
  0.4074041412210283  0.4091842464213379  0.6595721852445827
  0.5390646874221712  0.6445465258118637  0.5090352413587250
  0.6626104636741084  0.6806842564184056  0.5217919192543680
  0.5116046031775060  0.4697509953934035  0.6745983971475291
  0.5166090177098750  0.4138136572198680  0.4436567107738850
  0.6111717163057013  0.6641650106332379  0.4084858100617689
  0.3954090196669253  0.4157430751769983  0.4440746258992045
  0.6411761657886005  0.5559817222647253  0.3430026686941224
  0.4638208294860042  0.3822320612404977  0.3413822674005286
  0.3091739857786306  0.5667484312604717  0.5732470847015290
  0.4422375788863343  0.5039838092999880  0.3701494602551831
  0.5446552976741463  0.5596107195404599  0.4148910209434880
  0.6166588227574507  0.5360784626581889  0.6677039272687246
  0.3018574099727829  0.4751504753747339  0.6549673202748513
  0.5555498675615916  0.4659627478511884  0.3305262633986215
  0.4928792293548319  0.4114425189433072  0.5656245692890894
  0.7236157552950138  0.4814622495488779  0.6511232450365091
  0.7015518836928537  0.5834599956786077  0.5872517562410242
  0.4070496831863405  0.5408974837459547  0.6517711329044078
  0.6133712891407340  0.3730585681068636  0.5038563827156433
  0.4155611176594904  0.6210244783368282  0.5507755628157402
  0.4360287545066205  0.6187697661033014  0.4284049810675478
  0.5119115434240835  0.5908178216389163  0.7132338733096377
  0.3238782863934984  0.6529981952758315  0.4799699388053670
  0.6442621311206831  0.4581023070548496  0.4188540099266972
  0.6041715698934630  0.6509241012977031  0.6242098203056724
  0.6632160164579476  0.5707135152686824  0.4684641212746793
 
  0.00000000E+00  0.00000000E+00  0.00000000E+00
  0.00000000E+00  0.00000000E+00  0.00000000E+00
  0.00000000E+00  0.00000000E+00  0.00000000E+00
  0.00000000E+00  0.00000000E+00  0.00000000E+00
  0.00000000E+00  0.00000000E+00  0.00000000E+00
  0.00000000E+00  0.00000000E+00  0.00000000E+00
  0.00000000E+00  0.00000000E+00  0.00000000E+00
  0.00000000E+00  0.00000000E+00  0.00000000E+00
  0.00000000E+00  0.00000000E+00  0.00000000E+00
  0.00000000E+00  0.00000000E+00  0.00000000E+00
  0.00000000E+00  0.00000000E+00  0.00000000E+00
  0.00000000E+00  0.00000000E+00  0.00000000E+00
  0.00000000E+00  0.00000000E+00  0.00000000E+00
  0.00000000E+00  0.00000000E+00  0.00000000E+00
  0.00000000E+00  0.00000000E+00  0.00000000E+00
  0.00000000E+00  0.00000000E+00  0.00000000E+00
  0.00000000E+00  0.00000000E+00  0.00000000E+00
  0.00000000E+00  0.00000000E+00  0.00000000E+00
  0.00000000E+00  0.00000000E+00  0.00000000E+00
  0.00000000E+00  0.00000000E+00  0.00000000E+00
  0.00000000E+00  0.00000000E+00  0.00000000E+00
  0.00000000E+00  0.00000000E+00  0.00000000E+00
  0.00000000E+00  0.00000000E+00  0.00000000E+00
  0.00000000E+00  0.00000000E+00  0.00000000E+00
  0.00000000E+00  0.00000000E+00  0.00000000E+00
  0.00000000E+00  0.00000000E+00  0.00000000E+00
  0.00000000E+00  0.00000000E+00  0.00000000E+00
  0.00000000E+00  0.00000000E+00  0.00000000E+00
  0.00000000E+00  0.00000000E+00  0.00000000E+00
  0.00000000E+00  0.00000000E+00  0.00000000E+00
  0.00000000E+00  0.00000000E+00  0.00000000E+00
  0.00000000E+00  0.00000000E+00  0.00000000E+00
  0.00000000E+00  0.00000000E+00  0.00000000E+00
  0.00000000E+00  0.00000000E+00  0.00000000E+00
  0.00000000E+00  0.00000000E+00  0.00000000E+00
  0.00000000E+00  0.00000000E+00  0.00000000E+00
