Ni12, -990.0 <s> Pd </s>                
   1.00000000000000     
    17.6011500000000005    0.0000000000000000    0.0000000000000000
     0.0000000000000000   17.6011500000000005    0.0000000000000000
     0.0000000000000000    0.0000000000000000   17.6011500000000005
   Pd
    12
Direct
  0.5484554422902311  0.3924243344459319  0.5390028436912835
  0.4741728340095986  0.6166345917071465  0.6739694025892415
  0.4628769228882870  0.4866930042355919  0.4556665120770906
  0.4244591919252744  0.6204188013110922  0.5300847051881438
  0.6835779101319827  0.4743951111371982  0.5839472940338054
  0.6224312657691150  0.4835575731273239  0.4443461031424616
  0.6413752535216529  0.6106494178940830  0.6661407269068215
  0.5453045362774666  0.6122835200933689  0.4405923202186165
  0.5560872277303464  0.6909121792897243  0.5687946866441701
  0.6748614550989807  0.6106837086896663  0.5172404395188210
  0.4124966590610565  0.4880720476640107  0.6002158496247886
  0.5494194398916441  0.5300745019531536  0.5813329204478191
 
  0.00000000E+00  0.00000000E+00  0.00000000E+00
  0.00000000E+00  0.00000000E+00  0.00000000E+00
  0.00000000E+00  0.00000000E+00  0.00000000E+00
  0.00000000E+00  0.00000000E+00  0.00000000E+00
  0.00000000E+00  0.00000000E+00  0.00000000E+00
  0.00000000E+00  0.00000000E+00  0.00000000E+00
  0.00000000E+00  0.00000000E+00  0.00000000E+00
  0.00000000E+00  0.00000000E+00  0.00000000E+00
  0.00000000E+00  0.00000000E+00  0.00000000E+00
  0.00000000E+00  0.00000000E+00  0.00000000E+00
  0.00000000E+00  0.00000000E+00  0.00000000E+00
  0.00000000E+00  0.00000000E+00  0.00000000E+00
