Pt11, -47.06937691 <s> Pd </s>          
   1.00000000000000     
    18.7737662266973793    0.0000000000000000    0.0000000000000000
     0.0000000000000000   18.7737662266973793    0.0000000000000000
     0.0000000000000000    0.0000000000000000   18.7737662266973793
   Pd
    11
Direct
  0.6034146894879864  0.5427763684984913  0.3865645130998575
  0.5745658705364108  0.4960018381432789  0.5152250812996275
  0.5431987702780845  0.6292614914463410  0.4816888482468540
  0.4075138361033466  0.6431772033352441  0.4626932084677043
  0.5628565132667007  0.3561997614979574  0.5270249766414123
  0.5450610608501449  0.4139176877417302  0.3984202498932000
  0.4408611146451725  0.4195812496716605  0.4949870578721963
  0.5096729470461848  0.4408061095344787  0.6266344452604745
  0.4638345801651854  0.5290874385158879  0.4096878426914878
  0.3732255115727811  0.4488017063630000  0.6116831419507451
  0.4475212972197359  0.5517140791371213  0.5571832005515420
 
  0.00000000E+00  0.00000000E+00  0.00000000E+00
  0.00000000E+00  0.00000000E+00  0.00000000E+00
  0.00000000E+00  0.00000000E+00  0.00000000E+00
  0.00000000E+00  0.00000000E+00  0.00000000E+00
  0.00000000E+00  0.00000000E+00  0.00000000E+00
  0.00000000E+00  0.00000000E+00  0.00000000E+00
  0.00000000E+00  0.00000000E+00  0.00000000E+00
  0.00000000E+00  0.00000000E+00  0.00000000E+00
  0.00000000E+00  0.00000000E+00  0.00000000E+00
  0.00000000E+00  0.00000000E+00  0.00000000E+00
  0.00000000E+00  0.00000000E+00  0.00000000E+00
