Ti38, -252.08971708 <s> Ag </s>
  1.00000000000000
    22.20786515001275     0.00000000000000     0.00000000000000
     0.00000000000000    22.20786515001275     0.00000000000000
     0.00000000000000     0.00000000000000    22.20786515001275
  Ag    
  38    
Direct
     0.47866915684381      0.59131947489966      0.66101329297008   
     0.60414401922081      0.55830161957830      0.67352988867495   
     0.46712648652883      0.68026638990810      0.54851561343561   
     0.51834536758500      0.49504263120791      0.72794644952283   
     0.55841158862804      0.60916152725258      0.57847039401317   
     0.36901369324410      0.68217020625261      0.48451192156249   
     0.46749622791452      0.71368257220591      0.42895977350425   
     0.36846298730542      0.60448482728107      0.58234918415675   
     0.41340772877430      0.49191583348264      0.65936124928588   
     0.66689664739179      0.61125239839669      0.52973220056959   
     0.65178155826474      0.49559597643763      0.57177782879506   
     0.56782655959980      0.67042761026721      0.47732657232321   
     0.61166331678011      0.44033047585248      0.67958274757978   
     0.44938678462187      0.52799920231508      0.54680404824771   
     0.53092014109616      0.48753852635383      0.60333627705289   
     0.50135734109278      0.39061040566376      0.66900534855975   
     0.45715045006186      0.59517194424682      0.45167464185879   
     0.38899261276938      0.64778634059714      0.37080341007582   
     0.57575365553043      0.53931279662904      0.47355739633979   
     0.65268881925052      0.61807651612187      0.40974220964300   
     0.58896105107146      0.37623943882131      0.57805076576495   
     0.33209368176475      0.57566433889310      0.45904418124796   
     0.42505758865124      0.40551651853169      0.57583248664046   
     0.70020634434135      0.52422795986669      0.46066430552100   
     0.33650757312762      0.48933746662698      0.55295576251560   
     0.53880049040217      0.60677119901963      0.36787989583342   
     0.39007479744971      0.53583595921464      0.35788124783354   
     0.62610726815748      0.50745218690123      0.36694897864982   
     0.50919942129271      0.40858725602830      0.47869460066815   
     0.63888263047798      0.42345444838181      0.46076161230512   
     0.39857894609339      0.46567006170301      0.44996477534545   
     0.49280583985351      0.30472985359962      0.54452835355734   
     0.50534718548329      0.48936843317727      0.37822514625462   
     0.39963939145841      0.34438756207737      0.47351067733441   
     0.59181909074304      0.31336438186212      0.47603873916543   
     0.56749089324750      0.37596802366759      0.37377782876632   
     0.44521496997991      0.38643646164056      0.37097240706960   
     0.49350939807094      0.29200653741418      0.42378261871464   
