Li10, -12.7118617 <s> Ni </s>           
   1.00000000000000     
    18.0595300990979695    0.0000000000000000    0.0000000000000000
     0.0000000000000000   18.0595300990979695    0.0000000000000000
     0.0000000000000000    0.0000000000000000   18.0595300990979695
   Ni
    10
Direct
  0.5124120624877275  0.4060557698067027  0.4680761893396635
  0.4601348653194852  0.2910424205228015  0.4406588293861852
  0.4971341573255156  0.3708245077898268  0.3437786616535502
  0.4025054441044517  0.3700239902364915  0.5274050922333311
  0.3856681279362833  0.3888137987964277  0.4025922798612468
  0.3013109858965391  0.4407616664021298  0.4847190011732720
  0.4183276994452471  0.4947383117865475  0.4940923845855074
  0.4787354356836079  0.4955210217546573  0.3771189566119465
  0.4038277624585966  0.4421078663749133  0.2864894554070952
  0.3494624253808055  0.5096296125677399  0.3845881157864272
 
  0.00000000E+00  0.00000000E+00  0.00000000E+00
  0.00000000E+00  0.00000000E+00  0.00000000E+00
  0.00000000E+00  0.00000000E+00  0.00000000E+00
  0.00000000E+00  0.00000000E+00  0.00000000E+00
  0.00000000E+00  0.00000000E+00  0.00000000E+00
  0.00000000E+00  0.00000000E+00  0.00000000E+00
  0.00000000E+00  0.00000000E+00  0.00000000E+00
  0.00000000E+00  0.00000000E+00  0.00000000E+00
  0.00000000E+00  0.00000000E+00  0.00000000E+00
  0.00000000E+00  0.00000000E+00  0.00000000E+00
