Li10, -12.7118617 <s> Ni </s>           
   1.00000000000000     
    18.0595300990979695    0.0000000000000000    0.0000000000000000
     0.0000000000000000   18.0595300990979695    0.0000000000000000
     0.0000000000000000    0.0000000000000000   18.0595300990979695
   Ni
    10
Direct
  0.5440917689589083  0.3844387579233231  0.4854672854116336
  0.4264257330344349  0.2758212632675003  0.4249440453285706
  0.5284623167242808  0.3574940267384919  0.3214351141953057
  0.4017651315704792  0.3598465980257960  0.5671945336298239
  0.4205478993198029  0.4205211752897121  0.4207532667636383
  0.2833184930115357  0.4136059845879613  0.4632613722453933
  0.4018281142764988  0.5212061177064082  0.5233641153596404
  0.4948503546373669  0.5184560691280434  0.3452813933411278
  0.3753157566227587  0.4124450436749666  0.2841065385026557
  0.3329133978822010  0.5456839296960362  0.3737113012604422
 
  0.00000000E+00  0.00000000E+00  0.00000000E+00
  0.00000000E+00  0.00000000E+00  0.00000000E+00
  0.00000000E+00  0.00000000E+00  0.00000000E+00
  0.00000000E+00  0.00000000E+00  0.00000000E+00
  0.00000000E+00  0.00000000E+00  0.00000000E+00
  0.00000000E+00  0.00000000E+00  0.00000000E+00
  0.00000000E+00  0.00000000E+00  0.00000000E+00
  0.00000000E+00  0.00000000E+00  0.00000000E+00
  0.00000000E+00  0.00000000E+00  0.00000000E+00
  0.00000000E+00  0.00000000E+00  0.00000000E+00
