Ti10, -59.03778513 <s> Ag </s>          
   1.00000000000000     
    17.6588546071805510    0.0000000000000000    0.0000000000000000
     0.0000000000000000   17.6588546071805510    0.0000000000000000
     0.0000000000000000    0.0000000000000000   17.6588546071805510
   Ag
    10
Direct
  0.6386656163491178  0.5034332986669525  0.6133293437093370
  0.4986222325635321  0.4275132114515302  0.6332924267661625
  0.5046576338357678  0.5559830429781427  0.5432495513143214
  0.6404097675992954  0.5601271864805766  0.4628504025195336
  0.3814443271483354  0.5587514752324750  0.4434730381055932
  0.3630610504900809  0.5044952587242413  0.5936306617889133
  0.5129574522850030  0.6464900969342876  0.4141998038580371
  0.4302645735673973  0.4112969983351242  0.4871022529239517
  0.5162719474874983  0.4929974593829232  0.3837856964892570
  0.5870524439353839  0.4113680290238150  0.4982723357882329
 
  0.00000000E+00  0.00000000E+00  0.00000000E+00
  0.00000000E+00  0.00000000E+00  0.00000000E+00
  0.00000000E+00  0.00000000E+00  0.00000000E+00
  0.00000000E+00  0.00000000E+00  0.00000000E+00
  0.00000000E+00  0.00000000E+00  0.00000000E+00
  0.00000000E+00  0.00000000E+00  0.00000000E+00
  0.00000000E+00  0.00000000E+00  0.00000000E+00
  0.00000000E+00  0.00000000E+00  0.00000000E+00
  0.00000000E+00  0.00000000E+00  0.00000000E+00
  0.00000000E+00  0.00000000E+00  0.00000000E+00
