Pt44, -220.49215859 <s> Ag </s>
  1.00000000000000
    23.69067817689715     0.00000000000000     0.00000000000000
     0.00000000000000    23.69067817689715     0.00000000000000
     0.00000000000000     0.00000000000000    23.69067817689715
  Ag    
  44    
Direct
     0.33669113014128      0.46717776834376      0.33373236506053   
     0.34178846161000      0.53031493372351      0.52212513918637   
     0.44305740027804      0.42839522749525      0.36304349821502   
     0.35493289708898      0.44265689111357      0.44566318947484   
     0.35167610824071      0.62526277826451      0.59417516594434   
     0.42714433098521      0.49251237689089      0.26901185268726   
     0.34472839738067      0.55515123056254      0.40439703322461   
     0.39191642809810      0.51864245905621      0.62647299169510   
     0.45104885528560      0.37603484270522      0.46479939231766   
     0.45667562977695      0.52026298995797      0.43139899353508   
     0.35041852837024      0.64066095599570      0.47939285630475   
     0.38315303582380      0.42574952614037      0.55504385204029   
     0.54643688433522      0.42543222483426      0.41420570804174   
     0.44902494686535      0.62440588817645      0.65264640930301   
     0.47199044697118      0.52327418656821      0.71067161581392   
     0.53163506746386      0.50122000296687      0.32369791624832   
     0.43880298593121      0.58162508408645      0.33742873425175   
     0.45821100327668      0.33594923698579      0.57551650598645   
     0.45432677985102      0.57027920806437      0.53919286967825   
     0.45006579083400      0.68366772842985      0.54672513754557   
     0.49212551963010      0.46541164865459      0.52794403931616   
     0.46711114007182      0.43185686089632      0.64172973801606   
     0.45341684106064      0.64155782972588      0.43476961032108   
     0.54603812825591      0.60496458532502      0.37608387085103   
     0.53745632472319      0.53083760225894      0.61328138556397   
     0.55806915236812      0.37101478319007      0.51839467151241   
     0.55083434855134      0.35742557884474      0.63721722821319   
     0.54594725711027      0.61425059840937      0.71567600125578   
     0.56478605725602      0.53959850807111      0.47713073630390   
     0.55269954743900      0.65181341023582      0.60500161427343   
     0.64021666435535      0.41458879066138      0.59082291241344   
     0.58749274674081      0.50639277461847      0.71375610886292   
     0.55333642715975      0.65683099431362      0.49075995668041   
     0.63239940694859      0.50567684570765      0.38095917289574   
     0.63951942585662      0.52586903965698      0.56155984181051   
     0.64418814153729      0.61466551216154      0.43181465042650   
     0.64106515308735      0.44285973180359      0.48060281222926   
     0.62978520812508      0.40322954326612      0.70530620610010   
     0.64494361411419      0.59677584027020      0.65678775391516   
     0.69565256399478      0.48819511477235      0.66193517885304   
     0.80820899448681      0.55573980005540      0.51234895101630   
     0.65486866500878      0.63722129356703      0.54603582807168   
     0.74131212311839      0.57135389080478      0.59704335248752   
     0.71415394484414      0.53254638681972      0.46304965650801   
