In13, -26.8226618 <s> Pd </s>           
   1.00000000000000     
    19.5746506200738501    0.0000000000000000    0.0000000000000000
     0.0000000000000000   19.5746506200738501    0.0000000000000000
     0.0000000000000000    0.0000000000000000   19.5746506200738501
   Pd
    13
Direct
  0.3710607064224194  0.5240399041769758  0.4433923725280353
  0.4637576904874844  0.5508074288260623  0.5379280090609738
  0.4168731469128815  0.5242584179501260  0.3120744868891592
  0.2892219466841024  0.4054407294015145  0.4644282601118372
  0.3794330435444471  0.4432195196651698  0.5551412547013569
  0.5038699403587539  0.5503073090632266  0.4063643372868369
  0.3914630603507688  0.4103388244702951  0.3793161050931150
  0.4883280253568075  0.4352710418333943  0.4774964856841009
  0.5152194438992699  0.4305646090296359  0.3388652366068560
  0.3981640184912227  0.3246760485526421  0.4832221958809246
  0.3223593139053685  0.2977749695448918  0.3767919163149593
  0.4477650279575981  0.3083491155526284  0.3160519633527262
  0.5201440812194518  0.3177203888296271  0.4240162845838589
 
  0.00000000E+00  0.00000000E+00  0.00000000E+00
  0.00000000E+00  0.00000000E+00  0.00000000E+00
  0.00000000E+00  0.00000000E+00  0.00000000E+00
  0.00000000E+00  0.00000000E+00  0.00000000E+00
  0.00000000E+00  0.00000000E+00  0.00000000E+00
  0.00000000E+00  0.00000000E+00  0.00000000E+00
  0.00000000E+00  0.00000000E+00  0.00000000E+00
  0.00000000E+00  0.00000000E+00  0.00000000E+00
  0.00000000E+00  0.00000000E+00  0.00000000E+00
  0.00000000E+00  0.00000000E+00  0.00000000E+00
  0.00000000E+00  0.00000000E+00  0.00000000E+00
  0.00000000E+00  0.00000000E+00  0.00000000E+00
  0.00000000E+00  0.00000000E+00  0.00000000E+00
