Pt10, -42.33987265 <s> Pd </s>          
   1.00000000000000     
    18.4789956739320793    0.0000000000000000    0.0000000000000000
     0.0000000000000000   18.4789956739320793    0.0000000000000000
     0.0000000000000000    0.0000000000000000   18.4789956739320793
   Pd
    10
Direct
  0.3356438231055353  0.5843280606538104  0.4632029593801458
  0.4253300159797894  0.4838312151034643  0.4559935224954952
  0.4565474505217225  0.6166302422214810  0.5221161989645171
  0.5674030636459738  0.5342991039850211  0.4765658450642795
  0.5314766578222135  0.4396755807569120  0.3728312144972442
  0.5746265033035483  0.6064203781851916  0.5954717967538964
  0.6547203826984638  0.4325363053899180  0.4370664668432114
  0.4855123579475375  0.4979756460998194  0.5945253125201797
  0.5382047212885323  0.3911234859049060  0.5048610863012832
  0.4064357834045433  0.3888241981611011  0.5532503462181688
 
  0.00000000E+00  0.00000000E+00  0.00000000E+00
  0.00000000E+00  0.00000000E+00  0.00000000E+00
  0.00000000E+00  0.00000000E+00  0.00000000E+00
  0.00000000E+00  0.00000000E+00  0.00000000E+00
  0.00000000E+00  0.00000000E+00  0.00000000E+00
  0.00000000E+00  0.00000000E+00  0.00000000E+00
  0.00000000E+00  0.00000000E+00  0.00000000E+00
  0.00000000E+00  0.00000000E+00  0.00000000E+00
  0.00000000E+00  0.00000000E+00  0.00000000E+00
  0.00000000E+00  0.00000000E+00  0.00000000E+00
