Ag13, -897.0 <s> Ag </s>                
   1.00000000000000     
    19.9474319999999992    0.0000000000000000    0.0000000000000000
     0.0000000000000000   19.9474319999999992    0.0000000000000000
     0.0000000000000000    0.0000000000000000   19.9474319999999992
   Ag
    13
Direct
  0.5000000000000000  0.5913863195518119  0.5999460830723926
  0.5724930504238187  0.5702045653245342  0.4828483316610404
  0.6034319516783577  0.5000000000000000  0.6054325632391168
  0.3825402400348463  0.5000000000000000  0.3653596250956428
  0.3965680483216423  0.5000000000000000  0.6054325632391168
  0.4275069495761815  0.4297954346754658  0.4828483316610404
  0.5000000000000000  0.4285288967673875  0.3615858780965262
  0.6174597599651536  0.5000000000000000  0.3653596250956428
  0.5000000000000000  0.4086136804481882  0.5999460830723926
  0.5724930504238187  0.4297954346754658  0.4828483316610404
  0.4275069495761815  0.5702045653245342  0.4828483316610404
  0.5000000000000000  0.5714711032326126  0.3615858780965262
  0.5000000000000000  0.5000000000000000  0.7039583743484958
 
  0.00000000E+00  0.00000000E+00  0.00000000E+00
  0.00000000E+00  0.00000000E+00  0.00000000E+00
  0.00000000E+00  0.00000000E+00  0.00000000E+00
  0.00000000E+00  0.00000000E+00  0.00000000E+00
  0.00000000E+00  0.00000000E+00  0.00000000E+00
  0.00000000E+00  0.00000000E+00  0.00000000E+00
  0.00000000E+00  0.00000000E+00  0.00000000E+00
  0.00000000E+00  0.00000000E+00  0.00000000E+00
  0.00000000E+00  0.00000000E+00  0.00000000E+00
  0.00000000E+00  0.00000000E+00  0.00000000E+00
  0.00000000E+00  0.00000000E+00  0.00000000E+00
  0.00000000E+00  0.00000000E+00  0.00000000E+00
  0.00000000E+00  0.00000000E+00  0.00000000E+00
