Pt11, -46.98558353 <s> Ni </s>          
   1.00000000000000     
    18.5199773483183989    0.0000000000000000    0.0000000000000000
     0.0000000000000000   18.5199773483183989    0.0000000000000000
     0.0000000000000000    0.0000000000000000   18.5199773483183989
   Ni
    11
Direct
  0.5985001948746151  0.4015671472467027  0.4486114078410277
  0.3440345848754425  0.3535455580716682  0.3569056117014166
  0.4723346039107629  0.2991118429971300  0.4297178740173718
  0.4609776241380119  0.4504698619151550  0.3892481763837458
  0.5827648951556069  0.5468764915322761  0.3921070186173218
  0.4945555469767652  0.3785790791922213  0.5600807570716256
  0.3545431170577820  0.3821261441868890  0.5011889091689432
  0.3121802326740548  0.5005736649049417  0.4011041940465618
  0.5276491862374814  0.5232155678399549  0.5267359150819647
  0.4384420218659331  0.6029472380353191  0.4190380153923164
  0.3761651908477406  0.5276738536862302  0.5387698882069472
 
  0.00000000E+00  0.00000000E+00  0.00000000E+00
  0.00000000E+00  0.00000000E+00  0.00000000E+00
  0.00000000E+00  0.00000000E+00  0.00000000E+00
  0.00000000E+00  0.00000000E+00  0.00000000E+00
  0.00000000E+00  0.00000000E+00  0.00000000E+00
  0.00000000E+00  0.00000000E+00  0.00000000E+00
  0.00000000E+00  0.00000000E+00  0.00000000E+00
  0.00000000E+00  0.00000000E+00  0.00000000E+00
  0.00000000E+00  0.00000000E+00  0.00000000E+00
  0.00000000E+00  0.00000000E+00  0.00000000E+00
  0.00000000E+00  0.00000000E+00  0.00000000E+00
