Pt12, -52.32934922 <s> Cu </s>          
   1.00000000000000     
    18.8285375499107808    0.0000000000000000    0.0000000000000000
     0.0000000000000000   18.8285375499107808    0.0000000000000000
     0.0000000000000000    0.0000000000000000   18.8285375499107808
   Cu
    12
Direct
  0.5662828260049558  0.4877857561291661  0.4506019253565192
  0.5051339096344571  0.5264918903349224  0.5621750811778305
  0.5152938726021822  0.6006098828189684  0.4502935465286844
  0.6060006182898801  0.3704607866487200  0.4507333154611298
  0.5020319307146919  0.4009098575105570  0.5260064409599075
  0.3927590074231770  0.4538957344984982  0.5753347390181400
  0.4280396250182692  0.5028173225660606  0.4643455474737251
  0.4884234443562192  0.3952420199142402  0.3970390520030588
  0.4843209378656151  0.5168789799063787  0.3506303515272763
  0.3840983812156861  0.3744647506807731  0.4740683892795295
  0.3020072456409371  0.4728471987983639  0.4786993390100657
  0.3711896504354355  0.4461890270698697  0.3670457501161513
 
  0.00000000E+00  0.00000000E+00  0.00000000E+00
  0.00000000E+00  0.00000000E+00  0.00000000E+00
  0.00000000E+00  0.00000000E+00  0.00000000E+00
  0.00000000E+00  0.00000000E+00  0.00000000E+00
  0.00000000E+00  0.00000000E+00  0.00000000E+00
  0.00000000E+00  0.00000000E+00  0.00000000E+00
  0.00000000E+00  0.00000000E+00  0.00000000E+00
  0.00000000E+00  0.00000000E+00  0.00000000E+00
  0.00000000E+00  0.00000000E+00  0.00000000E+00
  0.00000000E+00  0.00000000E+00  0.00000000E+00
  0.00000000E+00  0.00000000E+00  0.00000000E+00
  0.00000000E+00  0.00000000E+00  0.00000000E+00
