Al39, -122.56656024 <s> Ag </s>
  1.00000000000000
    22.97749157321690     0.00000000000000     0.00000000000000
     0.00000000000000    22.97749157321690     0.00000000000000
     0.00000000000000     0.00000000000000    22.97749157321690
  Ag    
  39    
Direct
     0.48555956364314      0.49034171165660      0.33013664313397   
     0.38946263620760      0.65191764194457      0.42493171662993   
     0.57234147959332      0.45119364021078      0.25900471401797   
     0.41041549598470      0.53280799413257      0.41291885706448   
     0.39595863888366      0.63725237338579      0.54942674933836   
     0.56674328342894      0.57352900666157      0.28489934227371   
     0.24367281493263      0.48881352488002      0.52205626323957   
     0.35154824552394      0.45422105435942      0.48158694652918   
     0.45447303336693      0.42455373627365      0.43187946925125   
     0.47799808358870      0.61241959148472      0.35637101341096   
     0.55510744922611      0.39496378942367      0.36568963828526   
     0.49502055963816      0.62601223759432      0.47744851190881   
     0.31643416505758      0.57348229081833      0.47892067401405   
     0.53713619607696      0.51444498576742      0.44832486714003   
     0.62476733482378      0.49901342725857      0.36156382845822   
     0.44896984682870      0.52111450086327      0.52972846336578   
     0.33834987174960      0.53202297335358      0.59052690277693   
     0.31186881608439      0.40591950378933      0.58735839530151   
     0.59358871823648      0.61573057802727      0.39677189652864   
     0.61319918568809      0.65386367226371      0.50550340340213   
     0.62762794674889      0.42535311090586      0.45542014419422   
     0.52621031337180      0.33098320837223      0.46669659630785   
     0.52910411626302      0.42806108810985      0.54345219748105   
     0.42079086083541      0.44336369061467      0.62091766771335   
     0.50085425480412      0.66572702073073      0.59393521920712   
     0.43991662701307      0.56820475996358      0.64376036745342   
     0.65841641570804      0.54342166912802      0.47268603957678   
     0.42027946011049      0.36187437313353      0.53029092448370   
     0.62527134154495      0.33893283651488      0.53850201070248   
     0.56358050630008      0.55791592731989      0.56602214202910   
     0.51321599155254      0.30595340821617      0.58853062811401   
     0.61493997057991      0.67825176564422      0.61965986559136   
     0.52217402801782      0.48190147736741      0.65502781140968   
     0.64992675503684      0.46519379128194      0.56192891015620   
     0.55166674990629      0.59625725841621      0.68535245192151   
     0.59861205682666      0.39168864381009      0.64265010207078   
     0.68576985685736      0.58292054067403      0.58509881447611   
     0.63768804564599      0.50663986635205      0.67121586978538   
     0.67294004279844      0.61639084052292      0.70470318773807   
