Be6, -6.93084951 <s> Ag </s>            
   1.00000000000000     
    19.4460164343680404    0.0000000000000000    0.0000000000000000
     0.0000000000000000   19.4460164343680404    0.0000000000000000
     0.0000000000000000    0.0000000000000000   19.4460164343680404
   Ag
     6
Direct
  0.6352350643351015  0.4286033983422778  0.7849738310450423
  0.6399088871021670  0.5155577056094639  0.6835355981408560
  0.6873760307661047  0.5978048601147132  0.5751880004079700
  0.5747056787298453  0.6318527597031787  0.6422420469920167
  0.6240727588387662  0.7249157508347626  0.5513134969474407
  0.5885127095350847  0.8497268354522231  0.5195297008760396
 
  0.00000000E+00  0.00000000E+00  0.00000000E+00
  0.00000000E+00  0.00000000E+00  0.00000000E+00
  0.00000000E+00  0.00000000E+00  0.00000000E+00
  0.00000000E+00  0.00000000E+00  0.00000000E+00
  0.00000000E+00  0.00000000E+00  0.00000000E+00
  0.00000000E+00  0.00000000E+00  0.00000000E+00
