Ni11 https://doi.org/10.1039/C7CP02240A <s> Ni </s>
  1.00000000000000
    16.50198400000000     0.00000000000000     0.00000000000000
     0.00000000000000    16.50198400000000     0.00000000000000
     0.00000000000000     0.00000000000000    16.50198400000000
  Ni    
  11    
Cartesian
    -0.00886600000000      2.38629000000000     -0.86782500000000   
     1.58699400000000      0.63339700000000     -0.90303800000000   
    -1.19917600000000     -2.00729700000000     -0.99010600000000   
    -1.58697100000000     -0.63338900000000      0.90304100000000   
     0.73828900000000     -1.23374400000000     -2.09298000000000   
     2.17708400000000      0.00723800000000      1.30717000000000   
     0.63360600000000     -1.29478600000000      0.20455400000000   
    -0.78278200000000      0.24548500000000     -1.20283000000000   
     0.23918600000000     -0.76610500000000      2.40900400000000   
    -1.94660700000000      1.61362800000000      0.23485800000000   
     0.14924300000000      1.04928300000000      0.99814800000000   
