Tl10, -17.59348228 <s> Pd </s>          
   1.00000000000000     
    18.7493514727553006    0.0000000000000000    0.0000000000000000
     0.0000000000000000   18.7493514727553006    0.0000000000000000
     0.0000000000000000    0.0000000000000000   18.7493514727553006
   Pd
    10
Direct
  0.2778689733129462  0.4582299203410266  0.4594391413815769
  0.3939000898006788  0.3860354276082067  0.4769242760983798
  0.3304825158830204  0.5294839266515049  0.3537457918469051
  0.3176011736866296  0.3871157692134777  0.3427855546756640
  0.5097575674570151  0.3119558444424401  0.4865458148101277
  0.4207888924854810  0.2943241360492292  0.3760959554860089
  0.4416391539181297  0.4475962539576955  0.3572588219291843
  0.4018361037310346  0.5253091975056423  0.4784601598591399
  0.5468226635943274  0.3586533574897841  0.3620084566679825
  0.5280480740171758  0.4530069253194527  0.4669929108407237
 
  0.00000000E+00  0.00000000E+00  0.00000000E+00
  0.00000000E+00  0.00000000E+00  0.00000000E+00
  0.00000000E+00  0.00000000E+00  0.00000000E+00
  0.00000000E+00  0.00000000E+00  0.00000000E+00
  0.00000000E+00  0.00000000E+00  0.00000000E+00
  0.00000000E+00  0.00000000E+00  0.00000000E+00
  0.00000000E+00  0.00000000E+00  0.00000000E+00
  0.00000000E+00  0.00000000E+00  0.00000000E+00
  0.00000000E+00  0.00000000E+00  0.00000000E+00
  0.00000000E+00  0.00000000E+00  0.00000000E+00
