Al52, -165.86563581 <s> Ag </s>         
   1.00000000000000     
    23.7994363667007391    0.0000000000000000    0.0000000000000000
     0.0000000000000000   23.7994363667007391    0.0000000000000000
     0.0000000000000000    0.0000000000000000   23.7994363667007391
   Ag
    52
Direct
  0.5187155516758050  0.7506622275706004  0.3565058029080239
  0.6446936181717027  0.6055633690648073  0.3643309174993000
  0.7360993640806761  0.5643567777035753  0.4267016262009791
  0.5366954073390744  0.6264466291242643  0.3243584121016709
  0.5752074282379054  0.6778083400458139  0.4236790203303494
  0.5919932971630980  0.7177276589284851  0.5431814562539823
  0.6776027748171978  0.4936991490597808  0.3433523869342141
  0.6656971256164432  0.6380843585455283  0.4816951183467594
  0.4497550733810949  0.6661048202773405  0.3896627206761965
  0.5613441896193162  0.5112614621710865  0.3425314350931793
  0.7255916348799699  0.4479022245888019  0.4386155619872771
  0.4399373066487421  0.5532324215103895  0.3391391153716157
  0.4915174725725963  0.7363906925152714  0.4758359372219231
  0.6223178041393652  0.5257441328525050  0.4518347067328130
  0.7048807758135426  0.5297170436031030  0.5363913369201325
  0.5463908356175403  0.6161366132828143  0.5246753612192018
  0.6519413834327936  0.6189961382948522  0.5938217160568039
  0.5088941602484086  0.5624463389375235  0.4312424207441387
  0.6095043332573651  0.4140328934781037  0.4033628998137780
  0.3515901654927667  0.6073252060122988  0.3999415445518857
  0.4697496481963279  0.4508527595249610  0.3904331578037702
  0.5844041183793711  0.5176325872574549  0.5745607681626385
  0.3564741330605792  0.4904721756031343  0.4048086063513860
  0.4260726037633750  0.6246881938724224  0.4949680873305165
  0.6528780715428221  0.4267008893509722  0.5217165082671665
  0.4654134507670689  0.5744994341973970  0.6000783186102451
  0.4689126968456651  0.6954355512247414  0.5812797345726457
  0.6169381936992672  0.5519734977654837  0.6866221822643146
  0.3245562324515787  0.5587532358766726  0.5021711138266564
  0.4299126244518839  0.4997768492162811  0.5002396910223379
  0.6039607289224969  0.3279685885777397  0.4875465582745125
  0.6654666617316217  0.4593483264051529  0.6334926597037495
  0.5359128895701289  0.4453748888774152  0.4904699120804994
  0.5517101316141390  0.6426816088044148  0.6454249128046161
  0.5049086629697097  0.3445288088943267  0.4300950899773706
  0.5537630868397240  0.4492057393647591  0.6892302030998395
  0.3626667218134453  0.6299631226943595  0.5941772637228366
  0.5757011786378197  0.3803126153941248  0.5949941657146519
  0.3828893350115222  0.3753875570713025  0.4240761379882984
  0.4823741898710618  0.4584343408252832  0.5960656879016584
  0.5040378819496220  0.5536663756840000  0.7137124822033721
  0.3907027579125743  0.5751784726237182  0.6963737259977768
  0.3259011064752760  0.4404649874704651  0.5109285136476797
  0.4392519151627396  0.3770712797421583  0.5254256358496874
  0.5163483033747668  0.2887947081701717  0.5526519057793063
  0.4258403337911335  0.2706985115591811  0.4771274802503170
  0.4778298955301552  0.3567580846130656  0.6556590664937676
  0.4285919043620376  0.4606582617850715  0.6975877455580641
  0.3631364470904173  0.5087313553541578  0.6037154438700346
  0.3292032368439149  0.3260856663954362  0.5221354074643659
  0.3671970050397617  0.3914968389510838  0.6188435285403354
  0.4076338478673521  0.2817881482289804  0.5969780025513174
 
  0.00000000E+00  0.00000000E+00  0.00000000E+00
  0.00000000E+00  0.00000000E+00  0.00000000E+00
  0.00000000E+00  0.00000000E+00  0.00000000E+00
  0.00000000E+00  0.00000000E+00  0.00000000E+00
  0.00000000E+00  0.00000000E+00  0.00000000E+00
  0.00000000E+00  0.00000000E+00  0.00000000E+00
  0.00000000E+00  0.00000000E+00  0.00000000E+00
  0.00000000E+00  0.00000000E+00  0.00000000E+00
  0.00000000E+00  0.00000000E+00  0.00000000E+00
  0.00000000E+00  0.00000000E+00  0.00000000E+00
  0.00000000E+00  0.00000000E+00  0.00000000E+00
  0.00000000E+00  0.00000000E+00  0.00000000E+00
  0.00000000E+00  0.00000000E+00  0.00000000E+00
  0.00000000E+00  0.00000000E+00  0.00000000E+00
  0.00000000E+00  0.00000000E+00  0.00000000E+00
  0.00000000E+00  0.00000000E+00  0.00000000E+00
  0.00000000E+00  0.00000000E+00  0.00000000E+00
  0.00000000E+00  0.00000000E+00  0.00000000E+00
  0.00000000E+00  0.00000000E+00  0.00000000E+00
  0.00000000E+00  0.00000000E+00  0.00000000E+00
  0.00000000E+00  0.00000000E+00  0.00000000E+00
  0.00000000E+00  0.00000000E+00  0.00000000E+00
  0.00000000E+00  0.00000000E+00  0.00000000E+00
  0.00000000E+00  0.00000000E+00  0.00000000E+00
  0.00000000E+00  0.00000000E+00  0.00000000E+00
  0.00000000E+00  0.00000000E+00  0.00000000E+00
  0.00000000E+00  0.00000000E+00  0.00000000E+00
  0.00000000E+00  0.00000000E+00  0.00000000E+00
  0.00000000E+00  0.00000000E+00  0.00000000E+00
  0.00000000E+00  0.00000000E+00  0.00000000E+00
  0.00000000E+00  0.00000000E+00  0.00000000E+00
  0.00000000E+00  0.00000000E+00  0.00000000E+00
  0.00000000E+00  0.00000000E+00  0.00000000E+00
  0.00000000E+00  0.00000000E+00  0.00000000E+00
  0.00000000E+00  0.00000000E+00  0.00000000E+00
  0.00000000E+00  0.00000000E+00  0.00000000E+00
  0.00000000E+00  0.00000000E+00  0.00000000E+00
  0.00000000E+00  0.00000000E+00  0.00000000E+00
  0.00000000E+00  0.00000000E+00  0.00000000E+00
  0.00000000E+00  0.00000000E+00  0.00000000E+00
  0.00000000E+00  0.00000000E+00  0.00000000E+00
  0.00000000E+00  0.00000000E+00  0.00000000E+00
  0.00000000E+00  0.00000000E+00  0.00000000E+00
  0.00000000E+00  0.00000000E+00  0.00000000E+00
  0.00000000E+00  0.00000000E+00  0.00000000E+00
  0.00000000E+00  0.00000000E+00  0.00000000E+00
  0.00000000E+00  0.00000000E+00  0.00000000E+00
  0.00000000E+00  0.00000000E+00  0.00000000E+00
  0.00000000E+00  0.00000000E+00  0.00000000E+00
  0.00000000E+00  0.00000000E+00  0.00000000E+00
  0.00000000E+00  0.00000000E+00  0.00000000E+00
  0.00000000E+00  0.00000000E+00  0.00000000E+00
