Pt28, -134.18798607 <s> Ag </s>         
   1.00000000000000     
    23.6227027916322996    0.0000000000000000    0.0000000000000000
     0.0000000000000000   23.6227027916322996    0.0000000000000000
     0.0000000000000000    0.0000000000000000   23.6227027916322996
   Ag
    28
Direct
  0.4336483410330861  0.5972643626942244  0.6632032178761711
  0.5158147564325559  0.4917152309218975  0.3323871858424784
  0.4400978219374171  0.6597538884704138  0.4405565319952073
  0.4342280728661372  0.4355130564220322  0.2731282207527331
  0.4312987675879751  0.5433726893272313  0.4680299379620053
  0.6563954780230562  0.3790124902817159  0.6135449815227146
  0.6795600336132531  0.5095841375807156  0.5000647649785522
  0.4492798848683556  0.4789952700908231  0.6715932533461845
  0.6444640048293924  0.4956487666720383  0.6099495559660657
  0.5558707263729280  0.5355320035138860  0.5141577782805341
  0.5413825553259060  0.5477965578131162  0.6380036075829920
  0.6370823943468347  0.6086681690744824  0.4486267175784187
  0.5306568686760132  0.6636664190120858  0.6206975876746604
  0.6088969471061633  0.4979315055858878  0.4048047453694254
  0.4795391577838069  0.4546122204135364  0.5595514933736899
  0.3843534686379097  0.5257955462248572  0.5806760200195253
  0.3856005006716455  0.4373565487802730  0.4919632003735864
  0.5433879028553773  0.6574397249903465  0.4999159849050209
  0.5074886736480766  0.4504658861122682  0.4446579730933587
  0.3767992560420632  0.4102072831508478  0.6067858691307756
  0.5943129354118428  0.4243759565784751  0.5244383500488741
  0.4965558807397236  0.5527187870959378  0.7488314136652858
  0.4422518951921051  0.6249472824371464  0.5515458685549441
  0.5554787938750044  0.4266613450990838  0.6446803290455705
  0.5267055453146328  0.5840409584947998  0.4048860050368888
  0.6259496977043453  0.6057320193366685  0.5722699347038623
  0.4091405332961645  0.4618784139720220  0.3803310570730802
  0.7159364546183067  0.5414908286632744  0.3928957630574742
 
  0.00000000E+00  0.00000000E+00  0.00000000E+00
  0.00000000E+00  0.00000000E+00  0.00000000E+00
  0.00000000E+00  0.00000000E+00  0.00000000E+00
  0.00000000E+00  0.00000000E+00  0.00000000E+00
  0.00000000E+00  0.00000000E+00  0.00000000E+00
  0.00000000E+00  0.00000000E+00  0.00000000E+00
  0.00000000E+00  0.00000000E+00  0.00000000E+00
  0.00000000E+00  0.00000000E+00  0.00000000E+00
  0.00000000E+00  0.00000000E+00  0.00000000E+00
  0.00000000E+00  0.00000000E+00  0.00000000E+00
  0.00000000E+00  0.00000000E+00  0.00000000E+00
  0.00000000E+00  0.00000000E+00  0.00000000E+00
  0.00000000E+00  0.00000000E+00  0.00000000E+00
  0.00000000E+00  0.00000000E+00  0.00000000E+00
  0.00000000E+00  0.00000000E+00  0.00000000E+00
  0.00000000E+00  0.00000000E+00  0.00000000E+00
  0.00000000E+00  0.00000000E+00  0.00000000E+00
  0.00000000E+00  0.00000000E+00  0.00000000E+00
  0.00000000E+00  0.00000000E+00  0.00000000E+00
  0.00000000E+00  0.00000000E+00  0.00000000E+00
  0.00000000E+00  0.00000000E+00  0.00000000E+00
  0.00000000E+00  0.00000000E+00  0.00000000E+00
  0.00000000E+00  0.00000000E+00  0.00000000E+00
  0.00000000E+00  0.00000000E+00  0.00000000E+00
  0.00000000E+00  0.00000000E+00  0.00000000E+00
  0.00000000E+00  0.00000000E+00  0.00000000E+00
  0.00000000E+00  0.00000000E+00  0.00000000E+00
  0.00000000E+00  0.00000000E+00  0.00000000E+00
