Ti11, -65.47539081 <s> Pd </s>          
   1.00000000000000     
    18.1117640401303994    0.0000000000000000    0.0000000000000000
     0.0000000000000000   18.1117640401303994    0.0000000000000000
     0.0000000000000000    0.0000000000000000   18.1117640401303994
   Pd
    11
Direct
  0.6047571446755595  0.4820995273894325  0.5222128011672844
  0.5085521265375637  0.5254963100853561  0.4171227418051464
  0.5827512624242444  0.6249254224645054  0.4949352750094673
  0.5198546411851237  0.3778987534619265  0.4429974258684938
  0.5418485079324054  0.3712727285786595  0.5844304794529726
  0.5277934022137998  0.5645226670927403  0.6141024140645238
  0.4480468963142102  0.4699206533664428  0.5393947011753246
  0.4317373521360511  0.4300095407984457  0.3374099461480914
  0.3735404620993018  0.3762540686262186  0.4574260888565128
  0.3609284755036025  0.5191563086226378  0.4278567236909037
  0.4376248416794735  0.6170678913307850  0.5105393877613225
 
  0.00000000E+00  0.00000000E+00  0.00000000E+00
  0.00000000E+00  0.00000000E+00  0.00000000E+00
  0.00000000E+00  0.00000000E+00  0.00000000E+00
  0.00000000E+00  0.00000000E+00  0.00000000E+00
  0.00000000E+00  0.00000000E+00  0.00000000E+00
  0.00000000E+00  0.00000000E+00  0.00000000E+00
  0.00000000E+00  0.00000000E+00  0.00000000E+00
  0.00000000E+00  0.00000000E+00  0.00000000E+00
  0.00000000E+00  0.00000000E+00  0.00000000E+00
  0.00000000E+00  0.00000000E+00  0.00000000E+00
  0.00000000E+00  0.00000000E+00  0.00000000E+00
