Be10, -18.63978043 <s> Ni </s>          
   1.00000000000000     
    18.5491431622420286    0.0000000000000000    0.0000000000000000
     0.0000000000000000   18.5491431622420286    0.0000000000000000
     0.0000000000000000    0.0000000000000000   18.5491431622420286
   Ni
    10
Direct
  0.4222051148992744  0.5702931773366954  0.6041256209906803
  0.6183996576793592  0.6193081641358288  0.5390164392207785
  0.5549283045951475  0.6090484837196257  0.4278106310519316
  0.5887551208498294  0.5086211278141357  0.4921495465273074
  0.6014372104646786  0.4072278394043469  0.5611465957523178
  0.5125102624387924  0.4863651678554061  0.5932793259498053
  0.4658091548107550  0.5412025181528819  0.4882296755878162
  0.6360503480293389  0.5153833514931859  0.6109534605415199
  0.4964023128059474  0.6480104817637763  0.5344792773041872
  0.5429220413680541  0.5976676781288631  0.6392056294597844
 
  0.00000000E+00  0.00000000E+00  0.00000000E+00
  0.00000000E+00  0.00000000E+00  0.00000000E+00
  0.00000000E+00  0.00000000E+00  0.00000000E+00
  0.00000000E+00  0.00000000E+00  0.00000000E+00
  0.00000000E+00  0.00000000E+00  0.00000000E+00
  0.00000000E+00  0.00000000E+00  0.00000000E+00
  0.00000000E+00  0.00000000E+00  0.00000000E+00
  0.00000000E+00  0.00000000E+00  0.00000000E+00
  0.00000000E+00  0.00000000E+00  0.00000000E+00
  0.00000000E+00  0.00000000E+00  0.00000000E+00
