Pb5, -14.36702899 <s> Ag </s>
  1.00000000000000
    16.79488774602193     0.00000000000000     0.00000000000000
     0.00000000000000    16.79488774602193     0.00000000000000
     0.00000000000000     0.00000000000000    16.79488774602193
  Ag    
  5     
Direct
     0.34145576081303      0.43220977233772      0.36477727792310   
     0.48463475091078      0.40482621580667      0.35901050122240   
     0.49215376336550      0.52367549140420      0.44248023900989   
     0.45945120567930      0.33777784982327      0.48569954258077   
     0.37795328332091      0.45715943471765      0.50368120335336   
