Be11, -23.0757344 <s> Cu </s>           
   1.00000000000000     
    17.2576732312274892    0.0000000000000000    0.0000000000000000
     0.0000000000000000   17.2576732312274892    0.0000000000000000
     0.0000000000000000    0.0000000000000000   17.2576732312274892
   Cu
    11
Direct
  0.5346732599778330  0.6714214941925468  0.5974730548290401
  0.6259732831768683  0.5640203266881658  0.5884429991938721
  0.6638796797268998  0.6944542118016332  0.5458463700856585
  0.6415299256972434  0.5936846027896684  0.4496245240528494
  0.5548909089357563  0.7038797621375349  0.4618194573338152
  0.5978012062833507  0.4658826114140764  0.4896529703670570
  0.5774102056987650  0.4342843285163696  0.6254058469575879
  0.4906405953218031  0.5463319833412229  0.6384966235598126
  0.5083206932485598  0.5748689285606445  0.4974669415728317
  0.4682522291266375  0.4442885011901186  0.5408935277054057
  0.4484025328639626  0.4186577694256838  0.6766522043997564
 
  0.00000000E+00  0.00000000E+00  0.00000000E+00
  0.00000000E+00  0.00000000E+00  0.00000000E+00
  0.00000000E+00  0.00000000E+00  0.00000000E+00
  0.00000000E+00  0.00000000E+00  0.00000000E+00
  0.00000000E+00  0.00000000E+00  0.00000000E+00
  0.00000000E+00  0.00000000E+00  0.00000000E+00
  0.00000000E+00  0.00000000E+00  0.00000000E+00
  0.00000000E+00  0.00000000E+00  0.00000000E+00
  0.00000000E+00  0.00000000E+00  0.00000000E+00
  0.00000000E+00  0.00000000E+00  0.00000000E+00
  0.00000000E+00  0.00000000E+00  0.00000000E+00
