Ag12, -909.0 <s> Ag </s>                
   1.00000000000000     
    20.8382339999999999    0.0000000000000000    0.0000000000000000
     0.0000000000000000   20.8382339999999999    0.0000000000000000
     0.0000000000000000    0.0000000000000000   20.8382339999999999
   Ag
    12
Direct
  0.5000000000000000  0.5000000000000000  0.5720052516196115
  0.3926527825310908  0.6857670395030119  0.5000000000000000
  0.6073472174689093  0.3142329604969881  0.5000000000000000
  0.5000000000000000  0.5000000000000000  0.4279947483803885
  0.5003977289688152  0.3614007266210000  0.4346851610442327
  0.4068434115023300  0.4268633349427967  0.5000000000000000
  0.5996543128022422  0.4421257017660463  0.5000000000000000
  0.5003977289688152  0.3614007266210000  0.5653148389557672
  0.4996022710311847  0.6385992733790000  0.4346851610442327
  0.4003456871977578  0.5578742982339536  0.5000000000000000
  0.5931565884976702  0.5731366650572034  0.5000000000000000
  0.4996022710311847  0.6385992733790000  0.5653148389557672
 
  0.00000000E+00  0.00000000E+00  0.00000000E+00
  0.00000000E+00  0.00000000E+00  0.00000000E+00
  0.00000000E+00  0.00000000E+00  0.00000000E+00
  0.00000000E+00  0.00000000E+00  0.00000000E+00
  0.00000000E+00  0.00000000E+00  0.00000000E+00
  0.00000000E+00  0.00000000E+00  0.00000000E+00
  0.00000000E+00  0.00000000E+00  0.00000000E+00
  0.00000000E+00  0.00000000E+00  0.00000000E+00
  0.00000000E+00  0.00000000E+00  0.00000000E+00
  0.00000000E+00  0.00000000E+00  0.00000000E+00
  0.00000000E+00  0.00000000E+00  0.00000000E+00
  0.00000000E+00  0.00000000E+00  0.00000000E+00
