Ag12, -930.0 <s> Cu </s>
  1.00000000000000
    19.95998200000000     0.00000000000000     0.00000000000000
     0.00000000000000    19.95998200000000     0.00000000000000
     0.00000000000000     0.00000000000000    19.95998200000000
  Cu    
  12    
Direct
     0.50651316078107      0.65205783509782      0.50000000000000   
     0.54496527852959      0.54469834642700      0.56276330090413   
     0.45503472147041      0.61649718321223      0.60449345323575   
     0.54496527852959      0.38350281678777      0.39550654676425   
     0.45503472147041      0.61649718321223      0.39550654676425   
     0.45503472147041      0.45530165357300      0.43723669909587   
     0.49348683921893      0.34794216490218      0.50000000000000   
     0.54496527852959      0.38350281678777      0.60449345323575   
     0.42795625333836      0.55583298497764      0.50000000000000   
     0.45503472147041      0.45530165357300      0.56276330090413   
     0.54496527852959      0.54469834642700      0.43723669909587   
     0.57204374666164      0.44416701502236      0.50000000000000   
