Pt11, -47.16181828 <s> Pd </s>          
   1.00000000000000     
    19.0914708857608311    0.0000000000000000    0.0000000000000000
     0.0000000000000000   19.0914708857608311    0.0000000000000000
     0.0000000000000000    0.0000000000000000   19.0914708857608311
   Pd
    11
Direct
  0.5330419437064234  0.4106222095401462  0.4420269163615469
  0.5777329133396337  0.3520926950016713  0.5549711962833453
  0.4836670461586732  0.4800915146920281  0.3379061338012009
  0.5742506070286334  0.4854167940084966  0.5549343216615570
  0.4554584707985526  0.4063821168172236  0.5627966817602390
  0.4043771893142711  0.4733857780500856  0.4463114129667231
  0.5235775954820608  0.5542288705011944  0.4418014744853480
  0.5795747761021113  0.6724877487613825  0.4440891166533369
  0.4439944131162818  0.5488392043374712  0.5590824908844809
  0.5588726362703181  0.6190225928159331  0.5648445574510388
  0.3370757199324982  0.4691803532873358  0.5628879164495764
 
  0.00000000E+00  0.00000000E+00  0.00000000E+00
  0.00000000E+00  0.00000000E+00  0.00000000E+00
  0.00000000E+00  0.00000000E+00  0.00000000E+00
  0.00000000E+00  0.00000000E+00  0.00000000E+00
  0.00000000E+00  0.00000000E+00  0.00000000E+00
  0.00000000E+00  0.00000000E+00  0.00000000E+00
  0.00000000E+00  0.00000000E+00  0.00000000E+00
  0.00000000E+00  0.00000000E+00  0.00000000E+00
  0.00000000E+00  0.00000000E+00  0.00000000E+00
  0.00000000E+00  0.00000000E+00  0.00000000E+00
  0.00000000E+00  0.00000000E+00  0.00000000E+00
