Al41, -129.32489415 <s> Ag </s>         
   1.00000000000000     
    22.2013380575027206    0.0000000000000000    0.0000000000000000
     0.0000000000000000   22.2013380575027206    0.0000000000000000
     0.0000000000000000    0.0000000000000000   22.2013380575027206
   Ag
    41
Direct
  0.3925087990397411  0.5470473606954308  0.6776768891293069
  0.3300046619687766  0.6271412412580744  0.5971756116734561
  0.4478570083461645  0.6500620366275408  0.6301400360853767
  0.5725139261914669  0.6626968929271169  0.6491653853718848
  0.3284059309194414  0.4464003205517725  0.7174991444841329
  0.5185671145925258  0.5514277692301774  0.6788608741802252
  0.3006585229365908  0.4994716188734409  0.6063603372894056
  0.5255259404467892  0.7130582912725738  0.5447904189720686
  0.4172975502305590  0.6638799851985683  0.5050883447888274
  0.4573739005889338  0.4397883628827436  0.7025102136627719
  0.4611183736147219  0.4820367377230291  0.5828668180297405
  0.6356946064553384  0.6472820950060538  0.5365333371977834
  0.6363606979490642  0.5570085229700207  0.6316487445594885
  0.5215661582821699  0.5858127839608024  0.5474361245024983
  0.3779705081820484  0.5452857431817365  0.5136149208203412
  0.3739462032414994  0.3949821667425164  0.6116555736966551
  0.5826118690267650  0.4417512387942625  0.6735743383668950
  0.5302478906516694  0.6519966145061081  0.4317403956069895
  0.3177415605128941  0.4321779747028088  0.5038406624625630
  0.4231536414376882  0.5920383280687374  0.4019033770195432
  0.3257583446482529  0.5101178596834648  0.4051050176417600
  0.4321219011333211  0.3788257852886815  0.4985387422580209
  0.6064989214290366  0.5543993234982556  0.4548043437544447
  0.7205624488438236  0.6300954476166388  0.4423743602669176
  0.6990894786081469  0.4503718125846773  0.6142755882810552
  0.5304945041518297  0.5534494209834268  0.3441907849910534
  0.4908700671017368  0.4928711840446894  0.4571110630900826
  0.6274134321200326  0.3550274764283163  0.5835788046306640
  0.5028274823611243  0.3649798515151865  0.6036739949406519
  0.6373399743623085  0.6176536010081524  0.3509017716944589
  0.5851491595358788  0.4725977251018048  0.5490477712952793
  0.7090592051265293  0.5384369248893686  0.5268716078302959
  0.3591544214338338  0.3890930256675553  0.3931384212216403
  0.6776463032559283  0.4209183736551615  0.4830437469639594
  0.7064586617537042  0.5142783605022715  0.3929136046414401
  0.5960741118360947  0.4441474488863302  0.3875804744075450
  0.4268793352052813  0.4822298366047697  0.3379934382972856
  0.5572036802870557  0.3643890930275602  0.4815212665931536
  0.5316297690312318  0.4433385301989270  0.2786310828003056
  0.6377318278864325  0.5107982566453487  0.2843424704735693
  0.4857599784432941  0.3811869350831668  0.3816182957823421
 
  0.00000000E+00  0.00000000E+00  0.00000000E+00
  0.00000000E+00  0.00000000E+00  0.00000000E+00
  0.00000000E+00  0.00000000E+00  0.00000000E+00
  0.00000000E+00  0.00000000E+00  0.00000000E+00
  0.00000000E+00  0.00000000E+00  0.00000000E+00
  0.00000000E+00  0.00000000E+00  0.00000000E+00
  0.00000000E+00  0.00000000E+00  0.00000000E+00
  0.00000000E+00  0.00000000E+00  0.00000000E+00
  0.00000000E+00  0.00000000E+00  0.00000000E+00
  0.00000000E+00  0.00000000E+00  0.00000000E+00
  0.00000000E+00  0.00000000E+00  0.00000000E+00
  0.00000000E+00  0.00000000E+00  0.00000000E+00
  0.00000000E+00  0.00000000E+00  0.00000000E+00
  0.00000000E+00  0.00000000E+00  0.00000000E+00
  0.00000000E+00  0.00000000E+00  0.00000000E+00
  0.00000000E+00  0.00000000E+00  0.00000000E+00
  0.00000000E+00  0.00000000E+00  0.00000000E+00
  0.00000000E+00  0.00000000E+00  0.00000000E+00
  0.00000000E+00  0.00000000E+00  0.00000000E+00
  0.00000000E+00  0.00000000E+00  0.00000000E+00
  0.00000000E+00  0.00000000E+00  0.00000000E+00
  0.00000000E+00  0.00000000E+00  0.00000000E+00
  0.00000000E+00  0.00000000E+00  0.00000000E+00
  0.00000000E+00  0.00000000E+00  0.00000000E+00
  0.00000000E+00  0.00000000E+00  0.00000000E+00
  0.00000000E+00  0.00000000E+00  0.00000000E+00
  0.00000000E+00  0.00000000E+00  0.00000000E+00
  0.00000000E+00  0.00000000E+00  0.00000000E+00
  0.00000000E+00  0.00000000E+00  0.00000000E+00
  0.00000000E+00  0.00000000E+00  0.00000000E+00
  0.00000000E+00  0.00000000E+00  0.00000000E+00
  0.00000000E+00  0.00000000E+00  0.00000000E+00
  0.00000000E+00  0.00000000E+00  0.00000000E+00
  0.00000000E+00  0.00000000E+00  0.00000000E+00
  0.00000000E+00  0.00000000E+00  0.00000000E+00
  0.00000000E+00  0.00000000E+00  0.00000000E+00
  0.00000000E+00  0.00000000E+00  0.00000000E+00
  0.00000000E+00  0.00000000E+00  0.00000000E+00
  0.00000000E+00  0.00000000E+00  0.00000000E+00
  0.00000000E+00  0.00000000E+00  0.00000000E+00
  0.00000000E+00  0.00000000E+00  0.00000000E+00
