Be11, -20.20119234 <s> Ni </s>          
   1.00000000000000     
    18.9774010455049300    0.0000000000000000    0.0000000000000000
     0.0000000000000000   18.9774010455049300    0.0000000000000000
     0.0000000000000000    0.0000000000000000   18.9774010455049300
   Ni
    11
Direct
  0.3969991642330535  0.6181408350602630  0.6330150394341457
  0.5184780190541257  0.6112888873838535  0.4236294956765123
  0.5041676592296487  0.5052983192626952  0.6501964899580946
  0.5381448839211401  0.6378115848762471  0.5732760535785983
  0.7164982923641416  0.4580567404165873  0.5286890576113159
  0.6291255507864973  0.4078924796203721  0.6304444037169997
  0.5636994139057772  0.4822594855780570  0.5074613644080921
  0.6513736740106137  0.5525392906229107  0.6236098996797735
  0.4071469817816314  0.6794322913473462  0.4987356150722752
  0.6582027388862222  0.5953955133650871  0.4765601268426776
  0.4240882945778732  0.5332297386779291  0.5176680149795294
 
  0.00000000E+00  0.00000000E+00  0.00000000E+00
  0.00000000E+00  0.00000000E+00  0.00000000E+00
  0.00000000E+00  0.00000000E+00  0.00000000E+00
  0.00000000E+00  0.00000000E+00  0.00000000E+00
  0.00000000E+00  0.00000000E+00  0.00000000E+00
  0.00000000E+00  0.00000000E+00  0.00000000E+00
  0.00000000E+00  0.00000000E+00  0.00000000E+00
  0.00000000E+00  0.00000000E+00  0.00000000E+00
  0.00000000E+00  0.00000000E+00  0.00000000E+00
  0.00000000E+00  0.00000000E+00  0.00000000E+00
  0.00000000E+00  0.00000000E+00  0.00000000E+00
