Pt45, -226.78688774 <s> Ag </s>
  1.00000000000000
    22.25766853746069     0.00000000000000     0.00000000000000
     0.00000000000000    22.25766853746069     0.00000000000000
     0.00000000000000     0.00000000000000    22.25766853746069
  Ag    
  45    
Direct
     0.39260422567956      0.53702323611016      0.66121608771282   
     0.49635562133603      0.48558962513292      0.71500372850278   
     0.39977243387864      0.41524886898221      0.69101198285750   
     0.34633468719472      0.44417961428938      0.58433612536274   
     0.48354794184402      0.61923191307849      0.70108249688993   
     0.40207001902517      0.33418458343667      0.59644549668778   
     0.50772652356806      0.38492561794342      0.63701053869099   
     0.31732011570496      0.56143453531696      0.56340853501957   
     0.39359520718910      0.65290929407423      0.61997725797140   
     0.59230345648489      0.55688301960256      0.73043694857891   
     0.39340895245575      0.37404326797994      0.48082332963536   
     0.43095461644921      0.58116229742680      0.52413230196425   
     0.33834872956675      0.48509551687577      0.46705938102213   
     0.47104526916234      0.50831177222888      0.43459409205941   
     0.46144006835417      0.45726448121721      0.54624918021863   
     0.61000926074018      0.37103593331905      0.56826775425877   
     0.34110453453336      0.60565559782041      0.44465554754980   
     0.60585589351957      0.45615119970116      0.65885003807041   
     0.50311344940001      0.32459089742621      0.52455711654779   
     0.60480815661241      0.64440740354783      0.64819197346379   
     0.50341942189654      0.70679792717386      0.61489483587666   
     0.38510604558251      0.69823205785338      0.50766813295692   
     0.51525703832981      0.54555394859064      0.60891551067086   
     0.39000594458098      0.42738606203678      0.37089831496717   
     0.40003659159243      0.55564871117026      0.35150221013259   
     0.49477515456459      0.36967503904118      0.40683613458759   
     0.69064261644670      0.55272458393366      0.65473447796357   
     0.70581123428088      0.44804165808611      0.58609529699200   
     0.60043763840800      0.32314413370906      0.44877828020020   
     0.54125778686963      0.62951594948002      0.52305482635693   
     0.56385188993040      0.44764696899705      0.48493445062567   
     0.61102417046993      0.72693110865050      0.55443553988730   
     0.58179461873881      0.55922759493919      0.43533815585424   
     0.68262697814453      0.41561484830101      0.46720141763330   
     0.49687654056916      0.73708906227657      0.49445545652475   
     0.69129240585757      0.63401773010552      0.55668472283913   
     0.61997965860541      0.53409173084497      0.54863858426051   
     0.49712180617557      0.46805973053168      0.32294179456569   
     0.60604536430889      0.41445090416708      0.36235953112884   
     0.73132879855920      0.53037531078667      0.49681675379423   
     0.68306833379008      0.62837062700844      0.43380529190012   
     0.57094059614175      0.68179965082739      0.41100757367624   
     0.68280216224458      0.51076873681509      0.38598526866322   
     0.60444153390838      0.51912726383914      0.29583432360108   
     0.51744182595952      0.59548530397930      0.33797851993119   
