Co13, -947.0 <s> Ni </s>                
   1.00000000000000     
    17.7841270000000016    0.0000000000000000    0.0000000000000000
     0.0000000000000000   17.7841270000000016    0.0000000000000000
     0.0000000000000000    0.0000000000000000   17.7841270000000016
   Ni
    13
Direct
  0.4618300241472480  0.6333897137847824  0.5317115195936264
  0.4618296861142864  0.3666106719362477  0.5317115759324533
  0.4575947772616992  0.5000003337075825  0.5363576074328080
  0.5707137229218233  0.4312063859337020  0.4918421775979526
  0.5707138919383041  0.5687935490767199  0.4918418395650052
  0.3876875871206870  0.4331007859352325  0.4444848806147083
  0.3876878688148145  0.5668996561246176  0.4444852186476628
  0.5373335032122110  0.4335836199025606  0.6201483747812729
  0.5373337285675258  0.5664151883313294  0.6201480930871454
  0.4936805916496607  0.5000003900464094  0.4008837840278630
  0.4958211713934425  0.6301603106728463  0.4048962909440219
  0.4958210023769688  0.3698402440646650  0.4048959529110602
  0.6419524443724385  0.4999991505922310  0.5765926850822150
 
  0.00000000E+00  0.00000000E+00  0.00000000E+00
  0.00000000E+00  0.00000000E+00  0.00000000E+00
  0.00000000E+00  0.00000000E+00  0.00000000E+00
  0.00000000E+00  0.00000000E+00  0.00000000E+00
  0.00000000E+00  0.00000000E+00  0.00000000E+00
  0.00000000E+00  0.00000000E+00  0.00000000E+00
  0.00000000E+00  0.00000000E+00  0.00000000E+00
  0.00000000E+00  0.00000000E+00  0.00000000E+00
  0.00000000E+00  0.00000000E+00  0.00000000E+00
  0.00000000E+00  0.00000000E+00  0.00000000E+00
  0.00000000E+00  0.00000000E+00  0.00000000E+00
  0.00000000E+00  0.00000000E+00  0.00000000E+00
  0.00000000E+00  0.00000000E+00  0.00000000E+00
