Ni13 https://doi.org/10.1039/C7CP02240A <s> Ni </s>
  1.00000000000000
    16.71813300000000     0.00000000000000     0.00000000000000
     0.00000000000000    16.71813300000000     0.00000000000000
     0.00000000000000     0.00000000000000    16.71813300000000
  Ni    
  13    
Cartesian
    -0.01802800000000      2.24317700000000     -1.44101300000000   
    -0.03341100000000     -0.07664400000000     -1.43448700000000   
     0.09321200000000     -2.26413800000000     -0.78289100000000   
     2.00046800000000      0.96577700000000     -1.42456600000000   
     1.74140700000000     -0.82106600000000      0.19676800000000   
    -1.56751900000000      1.13312600000000     -0.06566900000000   
    -1.99811800000000     -1.15413800000000     -0.65147400000000   
     0.72874200000000      1.30723800000000      0.54830600000000   
    -0.88806100000000      1.02960000000000      2.26173200000000   
    -2.71766500000000     -0.17364800000000      1.45672600000000   
     1.23886800000000     -0.05229800000000      2.36025700000000   
    -0.48977800000000     -0.86113900000000      1.04096600000000   
     1.90988200000000     -1.27584600000000     -2.06465600000000   
