Ag9, -960.0 <s> Ag </s>
  1.00000000000000
    18.63307500000000     0.00000000000000     0.00000000000000
     0.00000000000000    18.63307500000000     0.00000000000000
     0.00000000000000     0.00000000000000    18.63307500000000
  Ag    
  9     
Direct
     0.43368243775592      0.36552986497875      0.50000000000000   
     0.51310502366834      0.44838784735686      0.60122478442232   
     0.41028232800485      0.51175865437610      0.50000000000000   
     0.58880771900982      0.36072732970210      0.50000000000000   
     0.51310502366834      0.44838784735686      0.39877521557768   
     0.51310502366834      0.59560622113574      0.42027687324824   
     0.61269819334108      0.51095277558261      0.50000000000000   
     0.51310502366834      0.59560622113574      0.57972312675176   
     0.40210922721499      0.66304323837525      0.50000000000000   
