Al11, -29.6501451 <s> Ag </s>           
   1.00000000000000     
    18.2937373025848906    0.0000000000000000    0.0000000000000000
     0.0000000000000000   18.2937373025848906    0.0000000000000000
     0.0000000000000000    0.0000000000000000   18.2937373025848906
   Ag
    11
Direct
  0.6552454320066551  0.5606379823881930  0.5038870895380266
  0.6206677115727902  0.4406290405397819  0.5881632561573529
  0.6058482430323772  0.4217036710905117  0.4336672340520687
  0.5246140725567640  0.6628897360934820  0.5036256438622305
  0.4985168980495941  0.3590431452285491  0.5173965907272698
  0.5108083514736594  0.5107665286366831  0.5124056182907974
  0.5697391831701354  0.5841869505495979  0.6287569640656926
  0.4534534377577626  0.4400294984448402  0.3934085142245318
  0.4027754722129901  0.5825714495142194  0.4349500295170778
  0.4171032651449538  0.6016550122469188  0.5892607236989953
  0.3661242697824416  0.4615213949576216  0.5173589181375619
 
  0.00000000E+00  0.00000000E+00  0.00000000E+00
  0.00000000E+00  0.00000000E+00  0.00000000E+00
  0.00000000E+00  0.00000000E+00  0.00000000E+00
  0.00000000E+00  0.00000000E+00  0.00000000E+00
  0.00000000E+00  0.00000000E+00  0.00000000E+00
  0.00000000E+00  0.00000000E+00  0.00000000E+00
  0.00000000E+00  0.00000000E+00  0.00000000E+00
  0.00000000E+00  0.00000000E+00  0.00000000E+00
  0.00000000E+00  0.00000000E+00  0.00000000E+00
  0.00000000E+00  0.00000000E+00  0.00000000E+00
  0.00000000E+00  0.00000000E+00  0.00000000E+00
