Be6, -6.91952191 <s> Ag </s>            
   1.00000000000000     
    18.8261092018627103    0.0000000000000000    0.0000000000000000
     0.0000000000000000   18.8261092018627103    0.0000000000000000
     0.0000000000000000    0.0000000000000000   18.8261092018627103
   Ag
     6
Direct
  0.6060632179829774  0.4941758534913896  0.6308831703324425
  0.8175245315810440  0.8382814512567623  0.6146483878023477
  0.7219401265474773  0.7390972819795775  0.6169655659970987
  0.4736135156344025  0.4398799181486008  0.6546139301785207
  0.6286955445629497  0.6335602133848746  0.5948189414790064
  0.4971572270642636  0.5803802154409509  0.6273477943951996
 
  0.00000000E+00  0.00000000E+00  0.00000000E+00
  0.00000000E+00  0.00000000E+00  0.00000000E+00
  0.00000000E+00  0.00000000E+00  0.00000000E+00
  0.00000000E+00  0.00000000E+00  0.00000000E+00
  0.00000000E+00  0.00000000E+00  0.00000000E+00
  0.00000000E+00  0.00000000E+00  0.00000000E+00
