Ti10, -58.71885446 <s> Cu </s>
  1.00000000000000
    19.06165930626313     0.00000000000000     0.00000000000000
     0.00000000000000    19.06165930626313     0.00000000000000
     0.00000000000000     0.00000000000000    19.06165930626313
  Cu    
  10    
Direct
     0.50851479855765      0.40351288254535      0.40963649672602   
     0.42600574051248      0.43912622667051      0.31273746899775   
     0.55980663509084      0.39463835657968      0.53074928226300   
     0.48057040545780      0.46671275340700      0.59480196782308   
     0.44520451429007      0.38903808771153      0.51585176767013   
     0.52225177624674      0.49726296532877      0.49099050056895   
     0.34618752032082      0.51106177045701      0.37553659981218   
     0.38382935963494      0.40975651719410      0.41659995312939   
     0.46105091695695      0.51711425263406      0.39128678862278   
     0.39772132185393      0.50325918365049      0.49774089221713   
