Ag12, -918.0 <s> Ag </s>                
   1.00000000000000     
    17.7171860000000017    0.0000000000000000    0.0000000000000000
     0.0000000000000000   17.7171860000000017    0.0000000000000000
     0.0000000000000000    0.0000000000000000   17.7171860000000017
   Ag
    12
Direct
  0.5000000000000000  0.6152284484662301  0.5000000000000000
  0.5791740683756422  0.4208259316243578  0.3692025094688635
  0.5791740683756422  0.5791740683756422  0.3692025094688635
  0.5000000000000000  0.3847715515337698  0.5000000000000000
  0.6152284484662301  0.5000000000000000  0.5000000000000000
  0.5791740683756422  0.4208259316243578  0.6307974905311435
  0.5791740683756422  0.5791740683756422  0.6307974905311435
  0.4208259316243578  0.4208259316243578  0.3692025094688635
  0.4208259316243578  0.5791740683756422  0.3692025094688635
  0.3847715515337698  0.5000000000000000  0.5000000000000000
  0.4208259316243578  0.5791740683756422  0.6307974905311435
  0.4208259316243578  0.4208259316243578  0.6307974905311435
 
  0.00000000E+00  0.00000000E+00  0.00000000E+00
  0.00000000E+00  0.00000000E+00  0.00000000E+00
  0.00000000E+00  0.00000000E+00  0.00000000E+00
  0.00000000E+00  0.00000000E+00  0.00000000E+00
  0.00000000E+00  0.00000000E+00  0.00000000E+00
  0.00000000E+00  0.00000000E+00  0.00000000E+00
  0.00000000E+00  0.00000000E+00  0.00000000E+00
  0.00000000E+00  0.00000000E+00  0.00000000E+00
  0.00000000E+00  0.00000000E+00  0.00000000E+00
  0.00000000E+00  0.00000000E+00  0.00000000E+00
  0.00000000E+00  0.00000000E+00  0.00000000E+00
  0.00000000E+00  0.00000000E+00  0.00000000E+00
