Al12, -32.893066 <s> Cu </s>
  1.00000000000000
    20.39119607021384     0.00000000000000     0.00000000000000
     0.00000000000000    20.39119607021384     0.00000000000000
     0.00000000000000     0.00000000000000    20.39119607021384
  Cu    
  12    
Direct
     0.42489029635288      0.49038352470458      0.31261876716572   
     0.42614112966580      0.38152793710249      0.34379445379324   
     0.44600693390851      0.36827641881445      0.45400465433269   
     0.52144504028862      0.44915920447414      0.37577349101090   
     0.49724883234750      0.56430429979567      0.35417288755214   
     0.42515004109209      0.48778218779122      0.43244994016285   
     0.53313253212339      0.54373896443833      0.45658792468972   
     0.53945315935236      0.42870937011420      0.48664521494674   
     0.37481108881002      0.44635468862038      0.52582773126793   
     0.47122422286262      0.38850958644890      0.56977215029938   
     0.47229694290350      0.50763572342006      0.54475142577690   
     0.40547098802733      0.45678543591619      0.63709675699062   
