Tl13, -23.46153255 <s> Pd </s>          
   1.00000000000000     
    20.0906342921859995    0.0000000000000000    0.0000000000000000
     0.0000000000000000   20.0906342921859995    0.0000000000000000
     0.0000000000000000    0.0000000000000000   20.0906342921859995
   Pd
    13
Direct
  0.5107208876440239  0.4082333837827624  0.4973520982691062
  0.4183448683968766  0.5812696575971140  0.3762152656640698
  0.3112329561206215  0.5022705625616257  0.3607239441293533
  0.5217360164543614  0.4986700916142642  0.3972101129625453
  0.4838784801222963  0.3749725336309671  0.3714566337083193
  0.4291200914721590  0.4742099555888189  0.3017911627310267
  0.3958700879852030  0.3400193217872836  0.4821756630505485
  0.2930881308409885  0.2846310545695605  0.4214622723907009
  0.2849710262715002  0.4120139789748677  0.4583538840202042
  0.5107491612294811  0.2805626797377317  0.4586172848142232
  0.4043679447992746  0.4678321557797179  0.4451960448050424
  0.3509697403943697  0.3770950004330404  0.3482714053895309
  0.4134775212798977  0.2624758666598042  0.3708581658679792
 
  0.00000000E+00  0.00000000E+00  0.00000000E+00
  0.00000000E+00  0.00000000E+00  0.00000000E+00
  0.00000000E+00  0.00000000E+00  0.00000000E+00
  0.00000000E+00  0.00000000E+00  0.00000000E+00
  0.00000000E+00  0.00000000E+00  0.00000000E+00
  0.00000000E+00  0.00000000E+00  0.00000000E+00
  0.00000000E+00  0.00000000E+00  0.00000000E+00
  0.00000000E+00  0.00000000E+00  0.00000000E+00
  0.00000000E+00  0.00000000E+00  0.00000000E+00
  0.00000000E+00  0.00000000E+00  0.00000000E+00
  0.00000000E+00  0.00000000E+00  0.00000000E+00
  0.00000000E+00  0.00000000E+00  0.00000000E+00
  0.00000000E+00  0.00000000E+00  0.00000000E+00
