In10, -19.65082742 <s> Ag </s>          
   1.00000000000000     
    19.1355552106901889    0.0000000000000000    0.0000000000000000
     0.0000000000000000   19.1355552106901889    0.0000000000000000
     0.0000000000000000    0.0000000000000000   19.1355552106901889
   Ag
    10
Direct
  0.4936338009444725  0.4264897061489208  0.5222660721393737
  0.4387931686412614  0.3075950596453580  0.4586191445499423
  0.3824982618147388  0.4524759884528819  0.6193755807413908
  0.5483521187487383  0.3831944037949597  0.3958382100724407
  0.3477867461311419  0.4177082988792478  0.4839924155110538
  0.3490308592447846  0.5274826254088651  0.3865419118035973
  0.4078757644808064  0.4007460071076139  0.3504032700597364
  0.4161986990050295  0.5466263487552681  0.5152378932063826
  0.5183040824072265  0.4440068200763321  0.2684360087769804
  0.4942523929400195  0.5158623500903943  0.3975455722738559
 
  0.00000000E+00  0.00000000E+00  0.00000000E+00
  0.00000000E+00  0.00000000E+00  0.00000000E+00
  0.00000000E+00  0.00000000E+00  0.00000000E+00
  0.00000000E+00  0.00000000E+00  0.00000000E+00
  0.00000000E+00  0.00000000E+00  0.00000000E+00
  0.00000000E+00  0.00000000E+00  0.00000000E+00
  0.00000000E+00  0.00000000E+00  0.00000000E+00
  0.00000000E+00  0.00000000E+00  0.00000000E+00
  0.00000000E+00  0.00000000E+00  0.00000000E+00
  0.00000000E+00  0.00000000E+00  0.00000000E+00
