Au13, -989.0 <s> Ni </s>                
   1.00000000000000     
    23.6663069999999998    0.0000000000000000    0.0000000000000000
     0.0000000000000000   23.6663069999999998    0.0000000000000000
     0.0000000000000000    0.0000000000000000   23.6663069999999998
   Ni
    13
Direct
  0.4820849298959572  0.5032150095502594  0.4345375904315977
  0.4425682772039765  0.4743665709357981  0.5254081192151718
  0.5026737061969175  0.4657985132755665  0.6018703053820813
  0.5652829073450357  0.5545910471628611  0.4344459233957269
  0.5379167562729836  0.5112642720152089  0.5200170516184787
  0.4716023490745661  0.5569131032716050  0.5780974952437156
  0.5145730475572732  0.6059661173870948  0.5023437463401240
  0.4282109951106024  0.5645862171718304  0.4876410719387823
  0.4800090858897633  0.5998101689680202  0.4100054679092446
  0.5719583495123589  0.4557901195234506  0.4450049883210657
  0.4851515894089004  0.4094810591427019  0.4662299378810588
  0.4637514426189067  0.3836790134053009  0.5601977453477459
  0.5542165832198102  0.4145387881903030  0.5342005569752215
 
  0.00000000E+00  0.00000000E+00  0.00000000E+00
  0.00000000E+00  0.00000000E+00  0.00000000E+00
  0.00000000E+00  0.00000000E+00  0.00000000E+00
  0.00000000E+00  0.00000000E+00  0.00000000E+00
  0.00000000E+00  0.00000000E+00  0.00000000E+00
  0.00000000E+00  0.00000000E+00  0.00000000E+00
  0.00000000E+00  0.00000000E+00  0.00000000E+00
  0.00000000E+00  0.00000000E+00  0.00000000E+00
  0.00000000E+00  0.00000000E+00  0.00000000E+00
  0.00000000E+00  0.00000000E+00  0.00000000E+00
  0.00000000E+00  0.00000000E+00  0.00000000E+00
  0.00000000E+00  0.00000000E+00  0.00000000E+00
  0.00000000E+00  0.00000000E+00  0.00000000E+00
