Al10, -26.43943848 <s> Pd </s>          
   1.00000000000000     
    19.1130358712615696    0.0000000000000000    0.0000000000000000
     0.0000000000000000   19.1130358712615696    0.0000000000000000
     0.0000000000000000    0.0000000000000000   19.1130358712615696
   Pd
    10
Direct
  0.3470155731995347  0.4578000233618323  0.4531958290202306
  0.4742190398831862  0.4223981227700897  0.4820628811901093
  0.3979722642565194  0.5145310552534648  0.5710751735543909
  0.6030171237093706  0.3925114727893174  0.5113866760550799
  0.5221952645036348  0.4559846155465799  0.6058150191564331
  0.6286377835204341  0.5218329245562568  0.5414356925476453
  0.5055075897905288  0.5574529538994294  0.4980640422623616
  0.4521118793238935  0.4994783801222631  0.3711071387622571
  0.5872715713045393  0.4896842441190990  0.4117308236862742
  0.3817065855186198  0.5886112097172427  0.4536016536411956
 
  0.00000000E+00  0.00000000E+00  0.00000000E+00
  0.00000000E+00  0.00000000E+00  0.00000000E+00
  0.00000000E+00  0.00000000E+00  0.00000000E+00
  0.00000000E+00  0.00000000E+00  0.00000000E+00
  0.00000000E+00  0.00000000E+00  0.00000000E+00
  0.00000000E+00  0.00000000E+00  0.00000000E+00
  0.00000000E+00  0.00000000E+00  0.00000000E+00
  0.00000000E+00  0.00000000E+00  0.00000000E+00
  0.00000000E+00  0.00000000E+00  0.00000000E+00
  0.00000000E+00  0.00000000E+00  0.00000000E+00
