Pt55, -282.73674187 <s> Ag </s>
  1.00000000000000
    23.56928027982678     0.00000000000000     0.00000000000000
     0.00000000000000    23.56928027982678     0.00000000000000
     0.00000000000000     0.00000000000000    23.56928027982678
  Ag    
  55    
Direct
     0.49754916607867      0.71213678373773      0.67300301826679   
     0.56988599381935      0.73044928932343      0.58254994962691   
     0.60169103420569      0.66248202525947      0.67488246152112   
     0.61171802962950      0.56287053911893      0.74022662807029   
     0.50028745037071      0.60454819157385      0.72079243600615   
     0.67378648203553      0.67341107297288      0.58069206753426   
     0.68541318943127      0.57982890343817      0.65208071131264   
     0.40819041481774      0.64275409413281      0.65464464507256   
     0.44794502976655      0.71771799624553      0.56820855929173   
     0.51974917146144      0.72409735212619      0.46500992125185   
     0.52395566467946      0.63707901087808      0.53661841865848   
     0.63402189267749      0.72677956497517      0.48430978354833   
     0.52309185377280      0.48811065311837      0.72033356344883   
     0.75775468689134      0.59326994467215      0.56354264062858   
     0.55462874748292      0.57065633849256      0.62465613166731   
     0.36284269744251      0.63699437484167      0.54281772053124   
     0.32371576656362      0.56684775582057      0.62566582259095   
     0.62514423998998      0.47709114382951      0.66054072695701   
     0.41627892762535      0.52627830037223      0.68922697244477   
     0.69913764108561      0.63258093886763      0.46563182605996   
     0.62301396562886      0.57886708205611      0.53438385942075   
     0.40666755198666      0.70377484890693      0.46067673284174   
     0.69584474386217      0.49099502383052      0.56928404695325   
     0.59351183833066      0.64409397869258      0.41307482091846   
     0.44551252452598      0.55464610434791      0.58169510389192   
     0.47304283614195      0.55822372227992      0.46941134359066   
     0.47682420134801      0.64139139861829      0.38913708136299   
     0.37009594194776      0.59847576384710      0.43033294421927   
     0.45329540799256      0.41391777900409      0.66584969003228   
     0.36023050265846      0.45736037838201      0.60913065843037   
     0.32926460426324      0.52403056483297      0.51584277607271   
     0.52521052016979      0.46597685629977      0.58816076273960   
     0.57109061758128      0.49480212901333      0.48226087962730   
     0.42846739984743      0.45918794486785      0.51321241763322   
     0.74538121340027      0.52594352140373      0.46902610942845   
     0.64965816191711      0.54301262434105      0.40388301665690   
     0.67019922331548      0.43502072045581      0.46624259905099   
     0.40763299156264      0.35847420913400      0.56590964072328   
     0.62624079080900      0.39873975391514      0.57416512631464   
     0.52226440616622      0.34351110331078      0.60778819532507   
     0.33367439882099      0.49402282145114      0.40444683580828   
     0.54837959465194      0.55767958095098      0.34956496520255   
     0.42998994718874      0.53767816062220      0.34714231400091   
     0.48422882086317      0.45615913440395      0.41201999671055   
     0.35489092510655      0.39162779991443      0.45898130434551   
     0.52278821514768      0.38950202110603      0.49604262807235   
     0.59997564196420      0.44529665323312      0.36899440634394   
     0.60113528537509      0.29396861016064      0.53471972988930   
     0.48465869319447      0.28045311105241      0.51674362772582   
     0.60671652825259      0.34580157140856      0.43152168479026   
     0.50595819675732      0.46190775140896      0.29485636732492   
     0.40075485426824      0.41525613300256      0.34863063428736   
     0.43996271438958      0.32903484743313      0.42318114082106   
     0.52098711604596      0.35878647699372      0.34416384712660   
     0.53115068011578      0.26188468094668      0.40957784325230   
