Al48, -153.27789516 <s> Ag </s>         
   1.00000000000000     
    22.8960082545085406    0.0000000000000000    0.0000000000000000
     0.0000000000000000   22.8960082545085406    0.0000000000000000
     0.0000000000000000    0.0000000000000000   22.8960082545085406
   Ag
    48
Direct
  0.6866231621475296  0.4192613559345668  0.5127162659695637
  0.7276555838476134  0.5253442847938566  0.4568552171011358
  0.6853815924768887  0.5264736267985750  0.5740621309181635
  0.6209758544439294  0.3454646256230614  0.4405399694978117
  0.5991956202462378  0.3365989080831291  0.5605995889194638
  0.6264455883467577  0.4343812306527508  0.6258634950975811
  0.7194523804960963  0.6339197828515108  0.5225857048256738
  0.5521623047331284  0.3546355308366222  0.6780147534695992
  0.6454508224142356  0.4589013804384827  0.3975352957797669
  0.5695834371365193  0.4485383220947189  0.5009628967535933
  0.6212982029413288  0.5773673401065306  0.4823807818213563
  0.4965183754938670  0.2867698120462664  0.5942798965119058
  0.4972940774139996  0.3455551079512840  0.4845535375600011
  0.6221632641012508  0.6328947172444234  0.5987681944519317
  0.5767327493270543  0.4904929930126092  0.2941675497025459
  0.5413627855369191  0.5300005066026913  0.4090459665551009
  0.5334988820205199  0.4062762224482428  0.3785428047246875
  0.6351695587842704  0.5798507177922849  0.3556690028166954
  0.4794265552983651  0.4233072450735533  0.5850196058597678
  0.6121887912493265  0.7067608586920459  0.5006323329259343
  0.4563907729882192  0.2868256746923123  0.7098814987952398
  0.5518125487855843  0.5303797348611957  0.5892657702274867
  0.5395038456848588  0.4743765694800068  0.7027306885198397
  0.6357429049738972  0.5426706769773931  0.6866652958101824
  0.4358411479449362  0.4081602157196770  0.7028593027441298
  0.5320342956331151  0.7156899334173709  0.5992145897738282
  0.4528185696045077  0.4597591419315667  0.4576017750431147
  0.5573660905881943  0.6632945596398224  0.4000301531098494
  0.3880614700333361  0.3342519662923159  0.6197627354646510
  0.5329497174108556  0.6126811654576632  0.6800268181927913
  0.4102169814730517  0.3757105714012896  0.3860715057243705
  0.5094240537982960  0.5995312625314294  0.3098359867554659
  0.5153225796378960  0.6275524540656060  0.5123613907595430
  0.4328121174362893  0.5756971189291357  0.4233163892541468
  0.4363992000777852  0.5270725749401569  0.6649888656308434
  0.4566760820162764  0.4868185405328483  0.3248930966236440
  0.4373494352765741  0.5415685502321436  0.5436434338491516
  0.3774246401488703  0.3809575778147973  0.5085022905817879
  0.4974448640690491  0.7423957835233462  0.4703122728000994
  0.3565288294054271  0.4525398152749520  0.6095857800245176
  0.3508820457260075  0.4881268316867001  0.3804106242583369
  0.4366624521176573  0.6872203006016600  0.3768745921868500
  0.4358325398887989  0.6429050343872195  0.6125982299372081
  0.3867186568510316  0.5910195575761215  0.3122692067195929
  0.3970099008033466  0.6642524809825759  0.4979961983732222
  0.3351711656477298  0.5742454298970129  0.6005073472190120
  0.3326864967180353  0.5016848566562543  0.4981020157591033
  0.3168189790562839  0.6017072426863375  0.4192462975173746
 
  0.00000000E+00  0.00000000E+00  0.00000000E+00
  0.00000000E+00  0.00000000E+00  0.00000000E+00
  0.00000000E+00  0.00000000E+00  0.00000000E+00
  0.00000000E+00  0.00000000E+00  0.00000000E+00
  0.00000000E+00  0.00000000E+00  0.00000000E+00
  0.00000000E+00  0.00000000E+00  0.00000000E+00
  0.00000000E+00  0.00000000E+00  0.00000000E+00
  0.00000000E+00  0.00000000E+00  0.00000000E+00
  0.00000000E+00  0.00000000E+00  0.00000000E+00
  0.00000000E+00  0.00000000E+00  0.00000000E+00
  0.00000000E+00  0.00000000E+00  0.00000000E+00
  0.00000000E+00  0.00000000E+00  0.00000000E+00
  0.00000000E+00  0.00000000E+00  0.00000000E+00
  0.00000000E+00  0.00000000E+00  0.00000000E+00
  0.00000000E+00  0.00000000E+00  0.00000000E+00
  0.00000000E+00  0.00000000E+00  0.00000000E+00
  0.00000000E+00  0.00000000E+00  0.00000000E+00
  0.00000000E+00  0.00000000E+00  0.00000000E+00
  0.00000000E+00  0.00000000E+00  0.00000000E+00
  0.00000000E+00  0.00000000E+00  0.00000000E+00
  0.00000000E+00  0.00000000E+00  0.00000000E+00
  0.00000000E+00  0.00000000E+00  0.00000000E+00
  0.00000000E+00  0.00000000E+00  0.00000000E+00
  0.00000000E+00  0.00000000E+00  0.00000000E+00
  0.00000000E+00  0.00000000E+00  0.00000000E+00
  0.00000000E+00  0.00000000E+00  0.00000000E+00
  0.00000000E+00  0.00000000E+00  0.00000000E+00
  0.00000000E+00  0.00000000E+00  0.00000000E+00
  0.00000000E+00  0.00000000E+00  0.00000000E+00
  0.00000000E+00  0.00000000E+00  0.00000000E+00
  0.00000000E+00  0.00000000E+00  0.00000000E+00
  0.00000000E+00  0.00000000E+00  0.00000000E+00
  0.00000000E+00  0.00000000E+00  0.00000000E+00
  0.00000000E+00  0.00000000E+00  0.00000000E+00
  0.00000000E+00  0.00000000E+00  0.00000000E+00
  0.00000000E+00  0.00000000E+00  0.00000000E+00
  0.00000000E+00  0.00000000E+00  0.00000000E+00
  0.00000000E+00  0.00000000E+00  0.00000000E+00
  0.00000000E+00  0.00000000E+00  0.00000000E+00
  0.00000000E+00  0.00000000E+00  0.00000000E+00
  0.00000000E+00  0.00000000E+00  0.00000000E+00
  0.00000000E+00  0.00000000E+00  0.00000000E+00
  0.00000000E+00  0.00000000E+00  0.00000000E+00
  0.00000000E+00  0.00000000E+00  0.00000000E+00
  0.00000000E+00  0.00000000E+00  0.00000000E+00
  0.00000000E+00  0.00000000E+00  0.00000000E+00
  0.00000000E+00  0.00000000E+00  0.00000000E+00
  0.00000000E+00  0.00000000E+00  0.00000000E+00
