Be12, -21.96960586 <s> Ni </s>          
   1.00000000000000     
    17.9133236117047616    0.0000000000000000    0.0000000000000000
     0.0000000000000000   17.9133236117047616    0.0000000000000000
     0.0000000000000000    0.0000000000000000   17.9133236117047616
   Ni
    12
Direct
  0.4078526329229528  0.4585751599564110  0.6123568830450735
  0.4264704308521511  0.5774054479956898  0.5637121682773422
  0.7100247827762612  0.5495869469106391  0.5126009257013242
  0.5488132720457445  0.6222257593422421  0.5713851763075385
  0.6242775692672847  0.6368355706278673  0.4668674162003039
  0.6770668813614396  0.6484759673437086  0.5866086066743398
  0.4969658023820794  0.6009108999761728  0.4529926327379500
  0.4593459838302532  0.4775706103802882  0.4927912254545044
  0.5362428588211040  0.4367936818747316  0.5899629586829465
  0.6285143466773556  0.5293291290986736  0.6149308588723855
  0.5846743705622874  0.5156325668266382  0.4943626327526616
  0.5033122695316955  0.5362018156850151  0.6612145010655844
 
  0.00000000E+00  0.00000000E+00  0.00000000E+00
  0.00000000E+00  0.00000000E+00  0.00000000E+00
  0.00000000E+00  0.00000000E+00  0.00000000E+00
  0.00000000E+00  0.00000000E+00  0.00000000E+00
  0.00000000E+00  0.00000000E+00  0.00000000E+00
  0.00000000E+00  0.00000000E+00  0.00000000E+00
  0.00000000E+00  0.00000000E+00  0.00000000E+00
  0.00000000E+00  0.00000000E+00  0.00000000E+00
  0.00000000E+00  0.00000000E+00  0.00000000E+00
  0.00000000E+00  0.00000000E+00  0.00000000E+00
  0.00000000E+00  0.00000000E+00  0.00000000E+00
  0.00000000E+00  0.00000000E+00  0.00000000E+00
