Ag8, -963.0 <s> Ag </s>
  1.00000000000000
    16.28475800000000     0.00000000000000     0.00000000000000
     0.00000000000000    16.28475800000000     0.00000000000000
     0.00000000000000     0.00000000000000    16.28475800000000
  Ag    
  8     
Direct
     0.56344681327165      0.56344681327165      0.56344681327165   
     0.43655318672835      0.43655318672835      0.56344681327165   
     0.56344681327165      0.43655318672835      0.43655318672835   
     0.43655318672835      0.56344681327165      0.43655318672835   
     0.60085375539508      0.39914624460492      0.60085375539508   
     0.60085375539508      0.60085375539508      0.39914624460492   
     0.39914624460492      0.60085375539508      0.60085375539508   
     0.39914624460492      0.39914624460492      0.39914624460492   
