Au12, -990.0 <s> Ni </s>                
   1.00000000000000     
    20.7621119999999983    0.0000000000000000    0.0000000000000000
     0.0000000000000000   20.7621119999999983    0.0000000000000000
     0.0000000000000000    0.0000000000000000   20.7621119999999983
   Ni
    12
Direct
  0.5402589769862161  0.4885577301492983  0.4080233076988313
  0.5427211944326084  0.4622906028492496  0.5198241581522909
  0.4837277676798329  0.4721146227055117  0.6233670541166575
  0.4394754904145688  0.5306069241110950  0.4098238402510070
  0.5750754276135912  0.5644806519542089  0.4790288351285142
  0.4398800883206452  0.5065507266482120  0.5216568307811320
  0.5214787248314694  0.5639627197173953  0.5778627726545771
  0.4756876764317161  0.6077759041488503  0.4836069585117289
  0.5248287330375025  0.5994991089593189  0.3815128881283305
  0.4561370464799975  0.4240065667337599  0.4440138817860202
  0.4524483476683246  0.3936108519672337  0.5491961721594530
  0.5482805261035273  0.3865435973917656  0.6020832859596317
 
  0.00000000E+00  0.00000000E+00  0.00000000E+00
  0.00000000E+00  0.00000000E+00  0.00000000E+00
  0.00000000E+00  0.00000000E+00  0.00000000E+00
  0.00000000E+00  0.00000000E+00  0.00000000E+00
  0.00000000E+00  0.00000000E+00  0.00000000E+00
  0.00000000E+00  0.00000000E+00  0.00000000E+00
  0.00000000E+00  0.00000000E+00  0.00000000E+00
  0.00000000E+00  0.00000000E+00  0.00000000E+00
  0.00000000E+00  0.00000000E+00  0.00000000E+00
  0.00000000E+00  0.00000000E+00  0.00000000E+00
  0.00000000E+00  0.00000000E+00  0.00000000E+00
  0.00000000E+00  0.00000000E+00  0.00000000E+00
