Ti10, -58.42898862 <s> Pd </s>          
   1.00000000000000     
    26.7609957717004292    0.0000000000000000    0.0000000000000000
     0.0000000000000000   26.7609957717004292    0.0000000000000000
     0.0000000000000000    0.0000000000000000   26.7609957717004292
   Pd
    10
Direct
  0.6138757392889906  0.4922046554226813  0.5373803729600689
  0.5161616240998363  0.4702431034951133  0.5515109890351106
  0.5642207712529301  0.4356777964796728  0.4727660389083228
  0.6381274476565477  0.5669627295444314  0.4785507417318682
  0.1963604623805124  0.4994490362756940  0.5127513533564017
  0.6556683170192764  0.4734685506311136  0.4504072297119857
  0.5421557595272987  0.5544677735502421  0.5080870728310158
  0.5739897726942874  0.5197417801620445  0.4208769105563676
  0.4843891715535145  0.4913719815412135  0.4600244322728558
  0.1538595926014685  0.4177112007446795  0.5184893185133284
 
  0.00000000E+00  0.00000000E+00  0.00000000E+00
  0.00000000E+00  0.00000000E+00  0.00000000E+00
  0.00000000E+00  0.00000000E+00  0.00000000E+00
  0.00000000E+00  0.00000000E+00  0.00000000E+00
  0.00000000E+00  0.00000000E+00  0.00000000E+00
  0.00000000E+00  0.00000000E+00  0.00000000E+00
  0.00000000E+00  0.00000000E+00  0.00000000E+00
  0.00000000E+00  0.00000000E+00  0.00000000E+00
  0.00000000E+00  0.00000000E+00  0.00000000E+00
  0.00000000E+00  0.00000000E+00  0.00000000E+00
