Li10, -12.50933562 <s> Ni </s>          
   1.00000000000000     
    18.7870930856839884    0.0000000000000000    0.0000000000000000
     0.0000000000000000   18.7870930856839884    0.0000000000000000
     0.0000000000000000    0.0000000000000000   18.7870930856839884
   Ni
    10
Direct
  0.4729916442490832  0.4546553051413989  0.5249189981363943
  0.4752230571214777  0.4501903195737071  0.3593204463125498
  0.5697454510506154  0.3700569527154287  0.4413540129024174
  0.4507390962830611  0.5766621636363412  0.4304202164626758
  0.4723239159065039  0.3063897720003187  0.3268528987469536
  0.3483860470610146  0.5168077776735412  0.3182297054457948
  0.4371797404579938  0.3136588976203109  0.4670558433441401
  0.3351102747696558  0.4925618348030987  0.4605112008304575
  0.3336666587319768  0.3692887618116316  0.3620248815138587
  0.3264008544520346  0.3714949551076324  0.5310785363881679
 
  0.00000000E+00  0.00000000E+00  0.00000000E+00
  0.00000000E+00  0.00000000E+00  0.00000000E+00
  0.00000000E+00  0.00000000E+00  0.00000000E+00
  0.00000000E+00  0.00000000E+00  0.00000000E+00
  0.00000000E+00  0.00000000E+00  0.00000000E+00
  0.00000000E+00  0.00000000E+00  0.00000000E+00
  0.00000000E+00  0.00000000E+00  0.00000000E+00
  0.00000000E+00  0.00000000E+00  0.00000000E+00
  0.00000000E+00  0.00000000E+00  0.00000000E+00
  0.00000000E+00  0.00000000E+00  0.00000000E+00
