Co13, -947.0 <s> Cu </s>
  1.00000000000000
    17.78412700000000     0.00000000000000     0.00000000000000
     0.00000000000000    17.78412700000000     0.00000000000000
     0.00000000000000     0.00000000000000    17.78412700000000
  Cu    
  13    
Direct
     0.46200588377358      0.63828265773714      0.52994081767088   
     0.46200553692043      0.36171773827411      0.52994087547974   
     0.45854700635953      0.50000034252777      0.53532698460922   
     0.56982790226132      0.43037957373084      0.49330560994932   
     0.56982807568790      0.56962035980955      0.49330526309617   
     0.38613534150532      0.42925287908408      0.44090187997032   
     0.38613563054961      0.57074757473603      0.44090222682347   
     0.54149300602112      0.43246439239379      0.62320384864178   
     0.54149323725655      0.56753438496943      0.62320355959749   
     0.49161326860098      0.50000040033663      0.40152161861606   
     0.49249901592667      0.63656058965954      0.40280896407982   
     0.49249884250010      0.36343997977828      0.40280861722667   
     0.64591725105796      0.49999912854175      0.58282973739694   
