Al12, -32.87197897 <s> Ag </s>          
   1.00000000000000     
    19.8453329303631207    0.0000000000000000    0.0000000000000000
     0.0000000000000000   19.8453329303631207    0.0000000000000000
     0.0000000000000000    0.0000000000000000   19.8453329303631207
   Ag
    12
Direct
  0.4922802492751930  0.4267197030235453  0.5391432324622770
  0.6397616742646782  0.5949576248357462  0.6008221280592667
  0.4003516952349507  0.4854745018786448  0.4429679066856270
  0.5216533533613908  0.4315119233299397  0.4029730567407230
  0.5163476460314712  0.5695489330224041  0.3845620975374088
  0.5981518122196752  0.5092781646050906  0.4892013136072952
  0.5652548448712342  0.6435724375883717  0.4879803509870941
  0.4337979779988975  0.4884791522236214  0.3087384629624756
  0.6005376588819406  0.4632135397957581  0.6245764138283981
  0.5049469539626416  0.5630933553107575  0.5881534157064272
  0.3800922939259987  0.4995711514677515  0.5772354628470534
  0.4730601539466010  0.4621676296968787  0.6803390271327842
 
  0.00000000E+00  0.00000000E+00  0.00000000E+00
  0.00000000E+00  0.00000000E+00  0.00000000E+00
  0.00000000E+00  0.00000000E+00  0.00000000E+00
  0.00000000E+00  0.00000000E+00  0.00000000E+00
  0.00000000E+00  0.00000000E+00  0.00000000E+00
  0.00000000E+00  0.00000000E+00  0.00000000E+00
  0.00000000E+00  0.00000000E+00  0.00000000E+00
  0.00000000E+00  0.00000000E+00  0.00000000E+00
  0.00000000E+00  0.00000000E+00  0.00000000E+00
  0.00000000E+00  0.00000000E+00  0.00000000E+00
  0.00000000E+00  0.00000000E+00  0.00000000E+00
  0.00000000E+00  0.00000000E+00  0.00000000E+00
