Li11, -14.16039254 <s> Cu </s>          
   1.00000000000000     
    19.6925717512134817    0.0000000000000000    0.0000000000000000
     0.0000000000000000   19.6925717512134817    0.0000000000000000
     0.0000000000000000    0.0000000000000000   19.6925717512134817
   Cu
    11
Direct
  0.4185004563838682  0.5109395655813964  0.3028585339024412
  0.4523747148196787  0.5043443166196619  0.4256409547262578
  0.3383862353204503  0.4721136054778379  0.3848439712239454
  0.3599184656184061  0.4681622341560147  0.5058488186951103
  0.5309388638360444  0.4787505381924169  0.3270594942218425
  0.5421043046343204  0.4170384037013750  0.4306281728542734
  0.3469387232640850  0.3645737474548608  0.4432920982018028
  0.3822910916789932  0.3591929137433348  0.5619524525893594
  0.4384862450874700  0.3994075888598135  0.3625171291103935
  0.4739789072744488  0.4370733735752723  0.5312213725938741
  0.4608307791176903  0.3331524996734782  0.4688857889161617
 
  0.00000000E+00  0.00000000E+00  0.00000000E+00
  0.00000000E+00  0.00000000E+00  0.00000000E+00
  0.00000000E+00  0.00000000E+00  0.00000000E+00
  0.00000000E+00  0.00000000E+00  0.00000000E+00
  0.00000000E+00  0.00000000E+00  0.00000000E+00
  0.00000000E+00  0.00000000E+00  0.00000000E+00
  0.00000000E+00  0.00000000E+00  0.00000000E+00
  0.00000000E+00  0.00000000E+00  0.00000000E+00
  0.00000000E+00  0.00000000E+00  0.00000000E+00
  0.00000000E+00  0.00000000E+00  0.00000000E+00
  0.00000000E+00  0.00000000E+00  0.00000000E+00
