Li11, -14.16039254 <s> Cu </s>
  1.00000000000000
    19.69257175121348     0.00000000000000     0.00000000000000
     0.00000000000000    19.69257175121348     0.00000000000000
     0.00000000000000     0.00000000000000    19.69257175121348
  Cu    
  11    
Direct
     0.41807305359760      0.50801616387749      0.29040860920039   
     0.44930766816322      0.50523484927666      0.41797456102081   
     0.33700710489206      0.47305396813672      0.38294469821256   
     0.34994284622861      0.47921685755491      0.51903448604868   
     0.53816442053883      0.48805627260350      0.32490884401709   
     0.54428768577629      0.41630785299780      0.43062193116895   
     0.36586317272795      0.37877899202955      0.45511815586736   
     0.37686030085818      0.35377267896861      0.57512308139247   
     0.44517723843479      0.40265382176130      0.36108306732584   
     0.45615583942973      0.42594817978321      0.51486751255256   
     0.46390945638820      0.31370915004571      0.47266384022874   
