Pt8, -31.86853838 <s> Ag </s>
  1.00000000000000
    17.30232905990432     0.00000000000000     0.00000000000000
     0.00000000000000    17.30232905990432     0.00000000000000
     0.00000000000000     0.00000000000000    17.30232905990432
  Ag    
  8     
Direct
     0.52956434342374      0.41350435290168      0.48395804904649   
     0.64862065148959      0.49075550105297      0.42166724532743   
     0.53072766397419      0.52228853615045      0.59271797095143   
     0.45528600981833      0.62118833986991      0.67755393336988   
     0.66059719922277      0.44239595891015      0.56701875644696   
     0.52725150333194      0.58075910112592      0.44976338089306   
     0.40085233553789      0.58167249827342      0.54130769463029   
     0.40958025105118      0.48697408198232      0.41773580786051   
