Ag12, -936.0 <s> Cu </s>                
   1.00000000000000     
    19.7729250000000008    0.0000000000000000    0.0000000000000000
     0.0000000000000000   19.7729250000000008    0.0000000000000000
     0.0000000000000000    0.0000000000000000   19.7729250000000008
   Cu
    12
Direct
  0.4398616358558542  0.5647083096302011  0.4713421324504601
  0.4398616358558542  0.4352916903697988  0.4713421324504601
  0.4297847273198446  0.5000000000000000  0.5719256867156477
  0.5000000000000000  0.4035357820192348  0.5832560723871805
  0.5601383641441455  0.4352916903697988  0.4713421324504601
  0.5601383641441455  0.5647083096302011  0.4713421324504601
  0.5702152726801551  0.5000000000000000  0.5719256867156477
  0.5000000000000000  0.5964642179807651  0.5832560723871805
  0.5000000000000000  0.6179188894095393  0.3763850246850099
  0.5000000000000000  0.5000000000000000  0.6691797732691197
  0.5000000000000000  0.5000000000000000  0.3823181228874109
  0.5000000000000000  0.3820811105904606  0.3763850246850099
 
  0.00000000E+00  0.00000000E+00  0.00000000E+00
  0.00000000E+00  0.00000000E+00  0.00000000E+00
  0.00000000E+00  0.00000000E+00  0.00000000E+00
  0.00000000E+00  0.00000000E+00  0.00000000E+00
  0.00000000E+00  0.00000000E+00  0.00000000E+00
  0.00000000E+00  0.00000000E+00  0.00000000E+00
  0.00000000E+00  0.00000000E+00  0.00000000E+00
  0.00000000E+00  0.00000000E+00  0.00000000E+00
  0.00000000E+00  0.00000000E+00  0.00000000E+00
  0.00000000E+00  0.00000000E+00  0.00000000E+00
  0.00000000E+00  0.00000000E+00  0.00000000E+00
  0.00000000E+00  0.00000000E+00  0.00000000E+00
