Ba13, -15.29844144 <s> Pd </s>          
   1.00000000000000     
    23.3455198747245802    0.0000000000000000    0.0000000000000000
     0.0000000000000000   23.3455198747245802    0.0000000000000000
     0.0000000000000000    0.0000000000000000   23.3455198747245802
   Pd
    13
Direct
  0.4089954668166035  0.3207843521865901  0.2642833228402672
  0.3181727162741819  0.2477729836956555  0.2756888385120524
  0.3006007350789420  0.3508156653737908  0.2285097490514369
  0.3639058897562036  0.4265984936889870  0.2848686735425511
  0.3899601424264222  0.2601466995362522  0.3640235413232348
  0.2140222478970598  0.3688705498379806  0.2974730335945321
  0.3154852577618883  0.3415298855009458  0.3434279715919788
  0.4202878680494475  0.3715858398905107  0.3691242167396321
  0.2319011267578064  0.2656731574865537  0.3438112796345189
  0.2770307976890262  0.4464276689703855  0.3532190928295749
  0.3023291503729223  0.2789568913668062  0.4339824637963151
  0.4075379852145504  0.3109157758189262  0.4643464756995554
  0.3326553649394398  0.3921015428833826  0.4402509847372747
 
  0.00000000E+00  0.00000000E+00  0.00000000E+00
  0.00000000E+00  0.00000000E+00  0.00000000E+00
  0.00000000E+00  0.00000000E+00  0.00000000E+00
  0.00000000E+00  0.00000000E+00  0.00000000E+00
  0.00000000E+00  0.00000000E+00  0.00000000E+00
  0.00000000E+00  0.00000000E+00  0.00000000E+00
  0.00000000E+00  0.00000000E+00  0.00000000E+00
  0.00000000E+00  0.00000000E+00  0.00000000E+00
  0.00000000E+00  0.00000000E+00  0.00000000E+00
  0.00000000E+00  0.00000000E+00  0.00000000E+00
  0.00000000E+00  0.00000000E+00  0.00000000E+00
  0.00000000E+00  0.00000000E+00  0.00000000E+00
  0.00000000E+00  0.00000000E+00  0.00000000E+00
