Os11, -795.0 <s> Pd </s>                
   1.00000000000000     
    18.0979330000000012    0.0000000000000000    0.0000000000000000
     0.0000000000000000   18.0979330000000012    0.0000000000000000
     0.0000000000000000    0.0000000000000000   18.0979330000000012
   Pd
    11
Direct
  0.6186254950134781  0.5669236417512199  0.5414232932652910
  0.4478350638934131  0.4842026188286407  0.5966793502348241
  0.5106396300799652  0.6041167509885244  0.6265870253442904
  0.4692598886579659  0.3426067553832454  0.5642954079549735
  0.6107645132207480  0.6109807734193452  0.4053591300527636
  0.5557097546109080  0.4455714823198174  0.5101806445730892
  0.4333839838060303  0.5199912142593318  0.4580833494796124
  0.4591290345971598  0.3803034018911837  0.4191950516195548
  0.5465729121701168  0.4898376530556109  0.3752500479933113
  0.3502551951259498  0.4140721267620939  0.5145027694693178
  0.4978245300783659  0.6413935800868713  0.4884439275047486
 
  0.00000000E+00  0.00000000E+00  0.00000000E+00
  0.00000000E+00  0.00000000E+00  0.00000000E+00
  0.00000000E+00  0.00000000E+00  0.00000000E+00
  0.00000000E+00  0.00000000E+00  0.00000000E+00
  0.00000000E+00  0.00000000E+00  0.00000000E+00
  0.00000000E+00  0.00000000E+00  0.00000000E+00
  0.00000000E+00  0.00000000E+00  0.00000000E+00
  0.00000000E+00  0.00000000E+00  0.00000000E+00
  0.00000000E+00  0.00000000E+00  0.00000000E+00
  0.00000000E+00  0.00000000E+00  0.00000000E+00
  0.00000000E+00  0.00000000E+00  0.00000000E+00
