Al45, -142.5231694 <s> Ag </s>
  1.00000000000000
    23.02961254428807     0.00000000000000     0.00000000000000
     0.00000000000000    23.02961254428807     0.00000000000000
     0.00000000000000     0.00000000000000    23.02961254428807
  Ag    
  45    
Direct
     0.70042266500440      0.52523410601093      0.46329892331315   
     0.74365480327137      0.42498778714217      0.52168394159342   
     0.67375343614102      0.36119701767883      0.59606476970906   
     0.65260724225277      0.62670811155077      0.41756979502895   
     0.70583996258196      0.51446072433319      0.58653373126515   
     0.64683341918737      0.60603060152212      0.53555640725400   
     0.62955266604747      0.32674536448372      0.48471931140143   
     0.60780735006880      0.71289647802107      0.50494856678503   
     0.68977117361468      0.40969554471721      0.41687660908250   
     0.64110264788961      0.58066765187835      0.65596297620009   
     0.57049417565439      0.66680525454552      0.61130729296382   
     0.63757669285525      0.50413434473057      0.35906033202063   
     0.54688815628650      0.69269642214792      0.41050766455961   
     0.61406586295140      0.45625834003482      0.64723449870342   
     0.56866428024946      0.53883328960439      0.45556725204668   
     0.61608626042613      0.44543002419202      0.52194737026532   
     0.55566643808547      0.35137508490731      0.58577602076500   
     0.53719095593862      0.54175787247095      0.69743331216819   
     0.55268707653741      0.53823839917444      0.57560639534564   
     0.56734277126153      0.59955192964872      0.33510910927395   
     0.50900249256240      0.63330632422332      0.50977282360250   
     0.56832896413249      0.41216764002531      0.41444540457505   
     0.51356040166232      0.49397709016027      0.35256773188996   
     0.47914514057938      0.69989721537748      0.31617979480975   
     0.42102420368661      0.66679757154976      0.42242099430210   
     0.48448773247846      0.43815472555204      0.51233210973543   
     0.50654453680044      0.32427824790747      0.47462357781124   
     0.49422507745537      0.44337950196864      0.63700681601838   
     0.44791175129144      0.54260136099127      0.45184424313325   
     0.46483408834463      0.61595806424765      0.62405749496390   
     0.43832304404705      0.33684425793692      0.59438364676270   
     0.44704228814765      0.40306676873196      0.39861632361970   
     0.38677757013020      0.49291567750138      0.35066125339704   
     0.44540764778599      0.58933361542469      0.33198870225577   
     0.41107182954289      0.50910539788450      0.57354900344060   
     0.38503106654555      0.62901208433041      0.52753996288402   
     0.41951759335560      0.52242560325460      0.69946663550420   
     0.35688237712493      0.45897138152987      0.46123579796178   
     0.38334313516171      0.41160107123049      0.67325412503570   
     0.38889907827744      0.34652380952152      0.48544943881397   
     0.32906682720282      0.57916647636526      0.42130353513330   
     0.34650461045193      0.60012563072428      0.63483900927619   
     0.32516314082078      0.40970732581939      0.56398172939526   
     0.29664204622976      0.53738186953238      0.53234816168877   
     0.29760699968290      0.49330027527675      0.64663826030778   
