Al54, -173.0136846 <s> Ag </s>          
   1.00000000000000     
    24.4305075266258989    0.0000000000000000    0.0000000000000000
     0.0000000000000000   24.4305075266258989    0.0000000000000000
     0.0000000000000000    0.0000000000000000   24.4305075266258989
   Ag
    54
Direct
  0.3795591516231183  0.4557152272036820  0.6175595503223387
  0.4159869288374853  0.3353624639102018  0.4260336171837583
  0.3850366105555628  0.5230983708898550  0.7098193216424977
  0.3983913629838399  0.3921439590562573  0.5267165014826980
  0.4656321747341289  0.3587202082387548  0.6156374494879568
  0.4881244171944198  0.3096092462593913  0.5121835617644169
  0.3974582803938483  0.5171839786542775  0.5123626342905706
  0.4728776086330159  0.4486579560496836  0.6890659907452530
  0.3789817878165777  0.4434190255397079  0.4255059022009721
  0.4904222638366754  0.5403509435019967  0.7558856076035798
  0.3483202577829280  0.5659727262814102  0.6060497074436109
  0.4479880383264838  0.3049602786735521  0.3206937476904403
  0.5705317469874690  0.3022820387777463  0.5900064498139566
  0.5688313981655239  0.4035006988424557  0.6370625990464939
  0.4835719723778468  0.4663374947655226  0.5746471579839816
  0.3481100358825378  0.5492194679305535  0.3992275938438213
  0.3669268546600709  0.3835859416716932  0.3307159243149540
  0.5816510655107895  0.4824702727300842  0.7162130114578439
  0.4806973060847451  0.4143608621424320  0.3466863351212592
  0.3481746017487575  0.6603054251304428  0.3831868025458423
  0.4639401898248659  0.5674973232718094  0.6422455002608884
  0.5994129817313701  0.5632429971074657  0.7910993305055257
  0.4029929981415268  0.4917703686580479  0.3168075064178938
  0.4952640563022872  0.4178162219673221  0.4689230250233120
  0.3288583526848222  0.6131671882253668  0.4995152449701505
  0.5284763632868088  0.3229450973536679  0.3993013622914997
  0.4730879501830371  0.5129319779697077  0.4114577771560685
  0.5938254497270105  0.3519245126480238  0.4863987562554745
  0.4313853932254070  0.6130619614128846  0.4469602459863263
  0.5867290140271800  0.4594514816002829  0.5300386486731185
  0.4429554047940557  0.5966829212920780  0.3319798936697461
  0.4240376735929093  0.6373179797785891  0.5599135216450998
  0.5738524782227532  0.5393555316054351  0.6112725293361954
  0.5843046750376992  0.4250772486556156  0.3954322826019965
  0.3928720012513044  0.7140429103789914  0.4774032499437122
  0.6624407449627933  0.3761527106549013  0.5703616981020446
  0.5602380837021081  0.6145279975945143  0.6971229762625714
  0.5513878320726204  0.5189006298349603  0.3295812582528958
  0.6645729478203132  0.4679979622493933  0.6336431800466182
  0.5131415939714782  0.5597138456981244  0.5121173759693849
  0.5993719780201212  0.5308370603804528  0.4392474645204856
  0.6634473900199149  0.5640796798489218  0.6932855085663324
  0.4576306268838251  0.7027359158170867  0.3788452274841752
  0.5327441338370347  0.6484132115368834  0.5921736993337910
  0.5358315865008980  0.6179791310640658  0.3977393866306136
  0.6775840187982073  0.4454877390441572  0.4659876472525936
  0.5093767310102520  0.6886694887413241  0.4885844590710581
  0.6694541844676536  0.5413584940724544  0.5437625006317387
  0.6448731596612064  0.6362744097875390  0.6074617364482473
  0.6661023453892752  0.4926082287508833  0.3540723203762647
  0.6412054204212171  0.6056927857129640  0.3623511666130934
  0.6141993784197226  0.6310035506832852  0.4897702567569635
  0.6032526654601038  0.7268495262502915  0.5504596096763213
  0.7101088560292315  0.5607520727802600  0.4404155026736937
 
  0.00000000E+00  0.00000000E+00  0.00000000E+00
  0.00000000E+00  0.00000000E+00  0.00000000E+00
  0.00000000E+00  0.00000000E+00  0.00000000E+00
  0.00000000E+00  0.00000000E+00  0.00000000E+00
  0.00000000E+00  0.00000000E+00  0.00000000E+00
  0.00000000E+00  0.00000000E+00  0.00000000E+00
  0.00000000E+00  0.00000000E+00  0.00000000E+00
  0.00000000E+00  0.00000000E+00  0.00000000E+00
  0.00000000E+00  0.00000000E+00  0.00000000E+00
  0.00000000E+00  0.00000000E+00  0.00000000E+00
  0.00000000E+00  0.00000000E+00  0.00000000E+00
  0.00000000E+00  0.00000000E+00  0.00000000E+00
  0.00000000E+00  0.00000000E+00  0.00000000E+00
  0.00000000E+00  0.00000000E+00  0.00000000E+00
  0.00000000E+00  0.00000000E+00  0.00000000E+00
  0.00000000E+00  0.00000000E+00  0.00000000E+00
  0.00000000E+00  0.00000000E+00  0.00000000E+00
  0.00000000E+00  0.00000000E+00  0.00000000E+00
  0.00000000E+00  0.00000000E+00  0.00000000E+00
  0.00000000E+00  0.00000000E+00  0.00000000E+00
  0.00000000E+00  0.00000000E+00  0.00000000E+00
  0.00000000E+00  0.00000000E+00  0.00000000E+00
  0.00000000E+00  0.00000000E+00  0.00000000E+00
  0.00000000E+00  0.00000000E+00  0.00000000E+00
  0.00000000E+00  0.00000000E+00  0.00000000E+00
  0.00000000E+00  0.00000000E+00  0.00000000E+00
  0.00000000E+00  0.00000000E+00  0.00000000E+00
  0.00000000E+00  0.00000000E+00  0.00000000E+00
  0.00000000E+00  0.00000000E+00  0.00000000E+00
  0.00000000E+00  0.00000000E+00  0.00000000E+00
  0.00000000E+00  0.00000000E+00  0.00000000E+00
  0.00000000E+00  0.00000000E+00  0.00000000E+00
  0.00000000E+00  0.00000000E+00  0.00000000E+00
  0.00000000E+00  0.00000000E+00  0.00000000E+00
  0.00000000E+00  0.00000000E+00  0.00000000E+00
  0.00000000E+00  0.00000000E+00  0.00000000E+00
  0.00000000E+00  0.00000000E+00  0.00000000E+00
  0.00000000E+00  0.00000000E+00  0.00000000E+00
  0.00000000E+00  0.00000000E+00  0.00000000E+00
  0.00000000E+00  0.00000000E+00  0.00000000E+00
  0.00000000E+00  0.00000000E+00  0.00000000E+00
  0.00000000E+00  0.00000000E+00  0.00000000E+00
  0.00000000E+00  0.00000000E+00  0.00000000E+00
  0.00000000E+00  0.00000000E+00  0.00000000E+00
  0.00000000E+00  0.00000000E+00  0.00000000E+00
  0.00000000E+00  0.00000000E+00  0.00000000E+00
  0.00000000E+00  0.00000000E+00  0.00000000E+00
  0.00000000E+00  0.00000000E+00  0.00000000E+00
  0.00000000E+00  0.00000000E+00  0.00000000E+00
  0.00000000E+00  0.00000000E+00  0.00000000E+00
  0.00000000E+00  0.00000000E+00  0.00000000E+00
  0.00000000E+00  0.00000000E+00  0.00000000E+00
  0.00000000E+00  0.00000000E+00  0.00000000E+00
  0.00000000E+00  0.00000000E+00  0.00000000E+00
