Pt50, -253.91188296 <s> Ag </s>         
   1.00000000000000     
    23.7322157425568996    0.0000000000000000    0.0000000000000000
     0.0000000000000000   23.7322157425568996    0.0000000000000000
     0.0000000000000000    0.0000000000000000   23.7322157425568996
   Ag
    50
Direct
  0.2864569725006710  0.4690044399804783  0.4650167532644003
  0.3580641997511666  0.5596085763048466  0.4700945676311888
  0.4484211041309168  0.5583164739302042  0.3932789388875795
  0.4314124101123870  0.6563456164539141  0.4653360827762716
  0.2935114010744095  0.4019108358811495  0.5580811479262482
  0.3471904286659664  0.3595553493996936  0.4577320584066732
  0.5044175686244019  0.7506840398445739  0.4600571084716357
  0.3850685702842356  0.4594931783050738  0.4031611458816045
  0.4021697720791595  0.4447353818589496  0.5284144930134087
  0.4569630064124799  0.7166225391120326  0.5672471562636749
  0.5239840627470397  0.6547181903750647  0.3880736508726100
  0.3728478194117911  0.3173165002826709  0.5678721120991114
  0.3208052343824859  0.5163277448360688  0.5748021965619599
  0.4363667604631818  0.3549587517924087  0.3795950361000342
  0.3862781311128705  0.6211408404111327  0.5719165808120644
  0.5386546030800733  0.5575634080762863  0.3188617626472064
  0.4702788156469626  0.5545699828471309  0.5181936226322816
  0.5461928677196843  0.6529470916156220  0.5099587719791266
  0.4850711574494718  0.4538238865363765  0.3369162848476847
  0.3717416582874032  0.4175590906589105  0.6428601991938669
  0.5258343836502396  0.8116938104291381  0.5594176948109987
  0.6372857324405222  0.6684400338768099  0.4328218847671724
  0.4616997233832587  0.3401809256734763  0.4924400135984255
  0.6154838282077626  0.7561754946449322  0.5079043920820872
  0.4962539619748954  0.4553311056612991  0.4564922792168213
  0.6485637363466271  0.5746746463008237  0.3612439971985331
  0.5530363876813118  0.3672693057516007  0.4117121684574106
  0.4264332172262189  0.5223361059721842  0.6313949950239460
  0.5642847574151365  0.5562324409829714  0.4394294309796050
  0.5722813733209872  0.7148815420733997  0.6113942747582777
  0.6850327666872748  0.5679196344202333  0.4750717603582527
  0.6018233112843093  0.4634331334549185  0.3544995297213209
  0.4729761414217150  0.3570896036496817  0.6115337208662983
  0.6624425241779466  0.6573153048887742  0.5520579966024970
  0.4996335349520938  0.6188937760813621  0.6191977374687340
  0.4692101125905708  0.4353132322827117  0.7043255508726574
  0.5149681477482300  0.4620638004730542  0.5746113611711470
  0.5901340784970005  0.5511212105673131  0.5567905966399543
  0.5686801547907006  0.3684181725882756  0.5345501820040999
  0.7125155633044693  0.4808389603407802  0.3993207259904381
  0.6219409907163076  0.4524647566967178  0.4695710798610696
  0.5397797447775861  0.5260085672994278  0.6755459489690068
  0.5753774671587478  0.4025408909599040  0.6577373807283169
  0.6179279916057070  0.6129108902606807  0.6534954591173057
  0.7062400283011105  0.5552217122202185  0.5928201272253224
  0.6537073864296059  0.4973042366112316  0.6844028157966410
  0.7448866992090192  0.4748196166844659  0.5127707186608031
  0.6519488018166518  0.4423261633054509  0.5803938093980446
  0.5722663873704990  0.4557587750892652  0.7617576916372584
  0.7556959287419371  0.4580616394215049  0.6320664129141607
 
  0.00000000E+00  0.00000000E+00  0.00000000E+00
  0.00000000E+00  0.00000000E+00  0.00000000E+00
  0.00000000E+00  0.00000000E+00  0.00000000E+00
  0.00000000E+00  0.00000000E+00  0.00000000E+00
  0.00000000E+00  0.00000000E+00  0.00000000E+00
  0.00000000E+00  0.00000000E+00  0.00000000E+00
  0.00000000E+00  0.00000000E+00  0.00000000E+00
  0.00000000E+00  0.00000000E+00  0.00000000E+00
  0.00000000E+00  0.00000000E+00  0.00000000E+00
  0.00000000E+00  0.00000000E+00  0.00000000E+00
  0.00000000E+00  0.00000000E+00  0.00000000E+00
  0.00000000E+00  0.00000000E+00  0.00000000E+00
  0.00000000E+00  0.00000000E+00  0.00000000E+00
  0.00000000E+00  0.00000000E+00  0.00000000E+00
  0.00000000E+00  0.00000000E+00  0.00000000E+00
  0.00000000E+00  0.00000000E+00  0.00000000E+00
  0.00000000E+00  0.00000000E+00  0.00000000E+00
  0.00000000E+00  0.00000000E+00  0.00000000E+00
  0.00000000E+00  0.00000000E+00  0.00000000E+00
  0.00000000E+00  0.00000000E+00  0.00000000E+00
  0.00000000E+00  0.00000000E+00  0.00000000E+00
  0.00000000E+00  0.00000000E+00  0.00000000E+00
  0.00000000E+00  0.00000000E+00  0.00000000E+00
  0.00000000E+00  0.00000000E+00  0.00000000E+00
  0.00000000E+00  0.00000000E+00  0.00000000E+00
  0.00000000E+00  0.00000000E+00  0.00000000E+00
  0.00000000E+00  0.00000000E+00  0.00000000E+00
  0.00000000E+00  0.00000000E+00  0.00000000E+00
  0.00000000E+00  0.00000000E+00  0.00000000E+00
  0.00000000E+00  0.00000000E+00  0.00000000E+00
  0.00000000E+00  0.00000000E+00  0.00000000E+00
  0.00000000E+00  0.00000000E+00  0.00000000E+00
  0.00000000E+00  0.00000000E+00  0.00000000E+00
  0.00000000E+00  0.00000000E+00  0.00000000E+00
  0.00000000E+00  0.00000000E+00  0.00000000E+00
  0.00000000E+00  0.00000000E+00  0.00000000E+00
  0.00000000E+00  0.00000000E+00  0.00000000E+00
  0.00000000E+00  0.00000000E+00  0.00000000E+00
  0.00000000E+00  0.00000000E+00  0.00000000E+00
  0.00000000E+00  0.00000000E+00  0.00000000E+00
  0.00000000E+00  0.00000000E+00  0.00000000E+00
  0.00000000E+00  0.00000000E+00  0.00000000E+00
  0.00000000E+00  0.00000000E+00  0.00000000E+00
  0.00000000E+00  0.00000000E+00  0.00000000E+00
  0.00000000E+00  0.00000000E+00  0.00000000E+00
  0.00000000E+00  0.00000000E+00  0.00000000E+00
  0.00000000E+00  0.00000000E+00  0.00000000E+00
  0.00000000E+00  0.00000000E+00  0.00000000E+00
  0.00000000E+00  0.00000000E+00  0.00000000E+00
  0.00000000E+00  0.00000000E+00  0.00000000E+00
