Ag12, -930.0 <s> Pd </s>                
   1.00000000000000     
    19.9599820000000001    0.0000000000000000    0.0000000000000000
     0.0000000000000000   19.9599820000000001    0.0000000000000000
     0.0000000000000000    0.0000000000000000   19.9599820000000001
   Pd
    12
Direct
  0.5110575669537916  0.6342750565571622  0.5000000000000000
  0.5590147103388787  0.5283305755266380  0.5665232625361302
  0.4548086393420742  0.5950662464840347  0.6142692756454795
  0.5451913606579257  0.4049337535159654  0.3857307243545203
  0.4548086393420742  0.5950662464840347  0.3857307243545203
  0.4409852896611214  0.4716694244733617  0.4334767374638701
  0.4889424330462083  0.3657249434428377  0.5000000000000000
  0.5451913606579257  0.4049337535159654  0.6142692756454795
  0.3901645636438179  0.5762742971651628  0.5000000000000000
  0.4409852896611214  0.4716694244733617  0.5665232625361302
  0.5590147103388787  0.5283305755266380  0.4334767374638701
  0.6098354363561823  0.4237257028348370  0.5000000000000000
 
  0.00000000E+00  0.00000000E+00  0.00000000E+00
  0.00000000E+00  0.00000000E+00  0.00000000E+00
  0.00000000E+00  0.00000000E+00  0.00000000E+00
  0.00000000E+00  0.00000000E+00  0.00000000E+00
  0.00000000E+00  0.00000000E+00  0.00000000E+00
  0.00000000E+00  0.00000000E+00  0.00000000E+00
  0.00000000E+00  0.00000000E+00  0.00000000E+00
  0.00000000E+00  0.00000000E+00  0.00000000E+00
  0.00000000E+00  0.00000000E+00  0.00000000E+00
  0.00000000E+00  0.00000000E+00  0.00000000E+00
  0.00000000E+00  0.00000000E+00  0.00000000E+00
  0.00000000E+00  0.00000000E+00  0.00000000E+00
