Pt13, -57.53340109 <s> Pd </s>          
   1.00000000000000     
    18.2570892138071699    0.0000000000000000    0.0000000000000000
     0.0000000000000000   18.2570892138071699    0.0000000000000000
     0.0000000000000000    0.0000000000000000   18.2570892138071699
   Pd
    13
Direct
  0.5323414234403752  0.5346745863497195  0.3669394518607160
  0.6313025522787409  0.4273261131919162  0.5697487948710016
  0.3626303001323589  0.3422067807692991  0.6241947803959011
  0.5249194827828301  0.6332816767689021  0.4799119672561118
  0.4207369218494247  0.5245225733682348  0.4678105295598808
  0.4224452597548145  0.6124988335473779  0.5778141244617950
  0.4389405286883550  0.4272754458729405  0.3672042206056301
  0.6379284473151309  0.5323758973984812  0.4753020058473878
  0.4055705589846344  0.3775001767383119  0.4982172479244563
  0.6256663711233246  0.6379206028112749  0.3827113317070422
  0.5283747777173550  0.5202163195372508  0.5790220482126642
  0.3981060128441095  0.4741693169753768  0.6085889723538026
  0.5365670056872210  0.4217430336761129  0.4680644084542792
 
  0.00000000E+00  0.00000000E+00  0.00000000E+00
  0.00000000E+00  0.00000000E+00  0.00000000E+00
  0.00000000E+00  0.00000000E+00  0.00000000E+00
  0.00000000E+00  0.00000000E+00  0.00000000E+00
  0.00000000E+00  0.00000000E+00  0.00000000E+00
  0.00000000E+00  0.00000000E+00  0.00000000E+00
  0.00000000E+00  0.00000000E+00  0.00000000E+00
  0.00000000E+00  0.00000000E+00  0.00000000E+00
  0.00000000E+00  0.00000000E+00  0.00000000E+00
  0.00000000E+00  0.00000000E+00  0.00000000E+00
  0.00000000E+00  0.00000000E+00  0.00000000E+00
  0.00000000E+00  0.00000000E+00  0.00000000E+00
  0.00000000E+00  0.00000000E+00  0.00000000E+00
