Ag13, -888.0 <s> Ag </s>                
   1.00000000000000     
    20.5548019999999987    0.0000000000000000    0.0000000000000000
     0.0000000000000000   20.5548019999999987    0.0000000000000000
     0.0000000000000000    0.0000000000000000   20.5548019999999987
   Ag
    13
Direct
  0.6220732571991781  0.5646282925548431  0.5517569880522247
  0.3779267428008219  0.4353717074451570  0.5517569880522247
  0.5000000000000000  0.5000000000000000  0.5719657937280476
  0.3788046182614584  0.5737229924854276  0.5568339778486837
  0.5003275986799308  0.6278736059938496  0.5341992483965048
  0.4996724013200693  0.3721263940061502  0.5341992483965048
  0.6211953817385416  0.4262770075145724  0.5568339778486837
  0.5536347113401486  0.5441391464829871  0.4371692351018002
  0.4463652886598512  0.4558608535170128  0.4371692351018002
  0.3196017987925507  0.5076478949118615  0.4539788248969385
  0.4224565065634676  0.5900674813451812  0.4300788288398387
  0.5775434934365322  0.4099325186548188  0.4300788288398387
  0.6803982012074492  0.4923521050881386  0.4539788248969385
 
  0.00000000E+00  0.00000000E+00  0.00000000E+00
  0.00000000E+00  0.00000000E+00  0.00000000E+00
  0.00000000E+00  0.00000000E+00  0.00000000E+00
  0.00000000E+00  0.00000000E+00  0.00000000E+00
  0.00000000E+00  0.00000000E+00  0.00000000E+00
  0.00000000E+00  0.00000000E+00  0.00000000E+00
  0.00000000E+00  0.00000000E+00  0.00000000E+00
  0.00000000E+00  0.00000000E+00  0.00000000E+00
  0.00000000E+00  0.00000000E+00  0.00000000E+00
  0.00000000E+00  0.00000000E+00  0.00000000E+00
  0.00000000E+00  0.00000000E+00  0.00000000E+00
  0.00000000E+00  0.00000000E+00  0.00000000E+00
  0.00000000E+00  0.00000000E+00  0.00000000E+00
