Pd12, -1536.353518 <s> Pd </s>          
   1.00000000000000     
    16.7018550599999998    0.0000000000000000    0.0000000000000000
     0.0000000000000000   16.7018550599999998    0.0000000000000000
     0.0000000000000000    0.0000000000000000   16.7018550599999998
   Pd
    12
Direct
  0.6100241738234995  0.5000000000000000  0.6100241738234995
  0.6100241738234995  0.6100241738234995  0.5000000000000000
  0.5000000000000000  0.6100241738234995  0.3899758261765006
  0.3899758261765006  0.5000000000000000  0.3899758261765006
  0.5000000000000000  0.3899758261765006  0.6100241738234995
  0.3899758261765006  0.3899758261765006  0.5000000000000000
  0.3899758261765006  0.6100241738234995  0.5000000000000000
  0.5000000000000000  0.6100241738234995  0.6100241738234995
  0.3899758261765006  0.5000000000000000  0.6100241738234995
  0.5000000000000000  0.3899758261765006  0.3899758261765006
  0.6100241738234995  0.3899758261765006  0.5000000000000000
  0.6100241738234995  0.5000000000000000  0.3899758261765006
 
  0.00000000E+00  0.00000000E+00  0.00000000E+00
  0.00000000E+00  0.00000000E+00  0.00000000E+00
  0.00000000E+00  0.00000000E+00  0.00000000E+00
  0.00000000E+00  0.00000000E+00  0.00000000E+00
  0.00000000E+00  0.00000000E+00  0.00000000E+00
  0.00000000E+00  0.00000000E+00  0.00000000E+00
  0.00000000E+00  0.00000000E+00  0.00000000E+00
  0.00000000E+00  0.00000000E+00  0.00000000E+00
  0.00000000E+00  0.00000000E+00  0.00000000E+00
  0.00000000E+00  0.00000000E+00  0.00000000E+00
  0.00000000E+00  0.00000000E+00  0.00000000E+00
  0.00000000E+00  0.00000000E+00  0.00000000E+00
