Pd12 https://doi.org/10.1039/C7CP02240A <s> Pd </s>
  1.00000000000000
    16.95321700000000     0.00000000000000     0.00000000000000
     0.00000000000000    16.95321700000000     0.00000000000000
     0.00000000000000     0.00000000000000    16.95321700000000
  Pd    
  12    
Cartesian
    -0.62889200000000     -0.26704500000000     -1.59903300000000   
     2.09144600000000      0.12976300000000     -1.74257100000000   
     0.83662100000000      1.51373400000000      0.17784600000000   
    -1.05634600000000     -2.50522100000000     -0.18953300000000   
    -0.34414600000000     -2.05982500000000      2.34865400000000   
     1.00602400000000     -2.30936900000000     -1.87940400000000   
     1.23735000000000     -1.13085500000000      0.46190000000000   
     0.34396200000000      2.05986300000000     -2.34859000000000   
    -1.73745100000000      1.98930600000000     -0.67227200000000   
    -1.00609100000000      2.30938600000000      1.87931400000000   
     0.70326700000000      0.38630200000000      2.60462700000000   
    -1.44574300000000     -0.11603900000000      0.95906400000000   
