Al11, -29.6501451 <s> Ni </s>           
   1.00000000000000     
    18.2937373025848906    0.0000000000000000    0.0000000000000000
     0.0000000000000000   18.2937373025848906    0.0000000000000000
     0.0000000000000000    0.0000000000000000   18.2937373025848906
   Ni
    11
Direct
  0.5624631323031711  0.4851102830052817  0.4366451234438987
  0.5343542514284777  0.3844710884748835  0.5113769142263244
  0.5253970885173609  0.3758983876098359  0.3789128379176567
  0.4606003584248510  0.5668156620625823  0.4358453080976972
  0.4309767249492574  0.3200424658381446  0.4521422500451296
  0.4437945445365867  0.4439048910783764  0.4497426167050118
  0.4912990654630873  0.5065017821618777  0.5464716405486031
  0.3998040717791632  0.3856125964622770  0.3464845860070690
  0.3576843403591268  0.5037247368697356  0.3811168275131168
  0.3643119019492504  0.5179820976086590  0.5116121643955234
  0.3260636141359135  0.4031202009686003  0.4561349449425625
 
  0.00000000E+00  0.00000000E+00  0.00000000E+00
  0.00000000E+00  0.00000000E+00  0.00000000E+00
  0.00000000E+00  0.00000000E+00  0.00000000E+00
  0.00000000E+00  0.00000000E+00  0.00000000E+00
  0.00000000E+00  0.00000000E+00  0.00000000E+00
  0.00000000E+00  0.00000000E+00  0.00000000E+00
  0.00000000E+00  0.00000000E+00  0.00000000E+00
  0.00000000E+00  0.00000000E+00  0.00000000E+00
  0.00000000E+00  0.00000000E+00  0.00000000E+00
  0.00000000E+00  0.00000000E+00  0.00000000E+00
  0.00000000E+00  0.00000000E+00  0.00000000E+00
