Al11, -29.6501451 <s> Ni </s>           
   1.00000000000000     
    18.2937373025848906    0.0000000000000000    0.0000000000000000
     0.0000000000000000   18.2937373025848906    0.0000000000000000
     0.0000000000000000    0.0000000000000000   18.2937373025848906
   Ni
    11
Direct
  0.5890223370182125  0.4962666483180621  0.4358786891497879
  0.5652957596804105  0.3677513594281922  0.5214937613801101
  0.5424042526095660  0.3575810559438441  0.3675657901272600
  0.4613280692634080  0.5958664397930082  0.4358136703927519
  0.4300051812833115  0.2845572235308137  0.4476424824151414
  0.4392406923767745  0.4370952338181943  0.4657969056758708
  0.5113387538677538  0.5284685189526630  0.5674261177330634
  0.3869313063701101  0.3718230687441667  0.3253466445860477
  0.3360304585436760  0.5190316655824996  0.3687499427918516
  0.3429475740010959  0.5427315900884740  0.5230378974870249
  0.2922047088319269  0.3920113879403431  0.4477333121036839
 
  0.00000000E+00  0.00000000E+00  0.00000000E+00
  0.00000000E+00  0.00000000E+00  0.00000000E+00
  0.00000000E+00  0.00000000E+00  0.00000000E+00
  0.00000000E+00  0.00000000E+00  0.00000000E+00
  0.00000000E+00  0.00000000E+00  0.00000000E+00
  0.00000000E+00  0.00000000E+00  0.00000000E+00
  0.00000000E+00  0.00000000E+00  0.00000000E+00
  0.00000000E+00  0.00000000E+00  0.00000000E+00
  0.00000000E+00  0.00000000E+00  0.00000000E+00
  0.00000000E+00  0.00000000E+00  0.00000000E+00
  0.00000000E+00  0.00000000E+00  0.00000000E+00
