Pt13, -57.12132168 <s> Ag </s>          
   1.00000000000000     
    19.0385974242977483    0.0000000000000000    0.0000000000000000
     0.0000000000000000   19.0385974242977483    0.0000000000000000
     0.0000000000000000    0.0000000000000000   19.0385974242977483
   Ag
    13
Direct
  0.5664060723833052  0.3830091858607751  0.5993838897853950
  0.5492771266305119  0.6187006469148845  0.6892850552576603
  0.5906967148325176  0.5256438546466361  0.5799132278490154
  0.4424158421557378  0.4030706479149386  0.6737270117807839
  0.5212135169383038  0.6514097051021528  0.5530636571725326
  0.4498228546688197  0.5369173060145127  0.6232325411905500
  0.4480673198017526  0.4260591346203197  0.5278562371643063
  0.5860039073606109  0.4399388174612234  0.4646426328970754
  0.4935692574459571  0.6902043805792150  0.4182711495256557
  0.4481008121493564  0.5568830980805862  0.4686861943342096
  0.5895242444346452  0.5832227204895862  0.4354330832283466
  0.4667316673197791  0.4404387603468564  0.3823142533384287
  0.5916525536232179  0.4906900800774560  0.3260731290953373
 
  0.00000000E+00  0.00000000E+00  0.00000000E+00
  0.00000000E+00  0.00000000E+00  0.00000000E+00
  0.00000000E+00  0.00000000E+00  0.00000000E+00
  0.00000000E+00  0.00000000E+00  0.00000000E+00
  0.00000000E+00  0.00000000E+00  0.00000000E+00
  0.00000000E+00  0.00000000E+00  0.00000000E+00
  0.00000000E+00  0.00000000E+00  0.00000000E+00
  0.00000000E+00  0.00000000E+00  0.00000000E+00
  0.00000000E+00  0.00000000E+00  0.00000000E+00
  0.00000000E+00  0.00000000E+00  0.00000000E+00
  0.00000000E+00  0.00000000E+00  0.00000000E+00
  0.00000000E+00  0.00000000E+00  0.00000000E+00
  0.00000000E+00  0.00000000E+00  0.00000000E+00
