Pt12, -52.23598613 <s> Pd </s>          
   1.00000000000000     
    17.8503821692297997    0.0000000000000000    0.0000000000000000
     0.0000000000000000   17.8503821692297997    0.0000000000000000
     0.0000000000000000    0.0000000000000000   17.8503821692297997
   Pd
    12
Direct
  0.4022714319244884  0.5722535699436496  0.6103462372830657
  0.4842642130968157  0.4554233755960673  0.6020569806959937
  0.4149094843526727  0.6125612295230989  0.4160277121420215
  0.5115840310250873  0.5921731444436970  0.5210661038077502
  0.6025574384199517  0.5345088818512850  0.6183672631387619
  0.3833529710870216  0.4945148054415853  0.4918385180095796
  0.6116427949471458  0.5888580894275003  0.4194913060193103
  0.6069295140276937  0.4657707262484945  0.4922615555593662
  0.5785596794152841  0.3524220870878346  0.5738421168378616
  0.3877663139928787  0.4201529364783371  0.3703653196416909
  0.5027870145398053  0.5032426514609973  0.3838124181846945
  0.4821811795602181  0.3770881475148486  0.4695810212824347
 
  0.00000000E+00  0.00000000E+00  0.00000000E+00
  0.00000000E+00  0.00000000E+00  0.00000000E+00
  0.00000000E+00  0.00000000E+00  0.00000000E+00
  0.00000000E+00  0.00000000E+00  0.00000000E+00
  0.00000000E+00  0.00000000E+00  0.00000000E+00
  0.00000000E+00  0.00000000E+00  0.00000000E+00
  0.00000000E+00  0.00000000E+00  0.00000000E+00
  0.00000000E+00  0.00000000E+00  0.00000000E+00
  0.00000000E+00  0.00000000E+00  0.00000000E+00
  0.00000000E+00  0.00000000E+00  0.00000000E+00
  0.00000000E+00  0.00000000E+00  0.00000000E+00
  0.00000000E+00  0.00000000E+00  0.00000000E+00
