Al44, -139.45940981 <s> Ag </s>
  1.00000000000000
    22.76154170151668     0.00000000000000     0.00000000000000
     0.00000000000000    22.76154170151668     0.00000000000000
     0.00000000000000     0.00000000000000    22.76154170151668
  Ag    
  44    
Direct
     0.68221549911472      0.58166847236605      0.66324708945231   
     0.58547647751288      0.64479887321103      0.70257738005758   
     0.36855396608523      0.54080085026666      0.69773757169232   
     0.47548578228956      0.59462170736492      0.69546347541231   
     0.37252058957270      0.43388500443758      0.62341291428865   
     0.56813928712477      0.54183516136525      0.63043731290056   
     0.67748499434447      0.47541278874154      0.60197708061417   
     0.47444725128323      0.47347464377057      0.66929187511246   
     0.56933064709079      0.42195150660870      0.60827438744532   
     0.46647040174930      0.35888033103501      0.61938890091636   
     0.64434782434144      0.39124639287408      0.51622748987794   
     0.53169310527783      0.34211899963344      0.52199422775042   
     0.37514257626192      0.65486389698909      0.64045535145737   
     0.28278454189246      0.52394339912083      0.60822671542249   
     0.70636093424880      0.58604581615885      0.54302409778645   
     0.49633815043240      0.68838738656543      0.61969640695121   
     0.61124834120664      0.65218636381488      0.58285485883470   
     0.27787038535089      0.40844476906999      0.55756923437931   
     0.41922001286060      0.55643748591512      0.58539865637605   
     0.51407249120740      0.59754504053757      0.52900283446420   
     0.39132818328125      0.37092663553183      0.51444095283021   
     0.59677027055395      0.50949543490596      0.51313806465885   
     0.47559985878337      0.46248830200834      0.53647552410107   
     0.53830066957412      0.72465287266827      0.51248275482612   
     0.35156728290222      0.49070578128401      0.50759510267418   
     0.60788243326546      0.30903228441512      0.43416113986469   
     0.71805933093576      0.48484679955363      0.48093520997993   
     0.31696007785258      0.61379333897050      0.53280396851118   
     0.46314272001884      0.33950389599666      0.42052862219281   
     0.55552449092988      0.42213409908492      0.42490393344709   
     0.42078372530349      0.67508207645252      0.52261491215877   
     0.61582523895844      0.62600810088551      0.46277569053228   
     0.54412587203771      0.31985741272444      0.33152928766362   
     0.49420031831915      0.66237449894327      0.42126668267354   
     0.42512873160172      0.45680504293470      0.42168599691042   
     0.51923987999355      0.53917042166579      0.42150674555726   
     0.40002958500539      0.58204887823403      0.44237304158478   
     0.68662802580340      0.40228992473714      0.39827941363102   
     0.47917417724412      0.42187720395587      0.31994811201768   
     0.63681297504134      0.51726059168380      0.39005464631344   
     0.60678537274723      0.42181244121139      0.31069894151616   
     0.58159393576392      0.62436723291223      0.34700368838456   
     0.43379078801090      0.54190456399289      0.33116081336080   
     0.54944780504918      0.52384662198182      0.29687282758479   
