Be6, -7.65687093 <s> Ag </s>
  1.00000000000000
    18.50061858823819     0.00000000000000     0.00000000000000
     0.00000000000000    18.50061858823819     0.00000000000000
     0.00000000000000     0.00000000000000    18.50061858823819
  Ag    
  6     
Direct
     0.69255113617507      0.83516115165018      0.65409977171494   
     0.63547004338291      0.70352917344230      0.62109563389192   
     0.65976093870792      0.59616607038848      0.52916446602108   
     0.64885821822851      0.44837933963439      0.73918319127796   
     0.61045507122320      0.56716454056033      0.66069834861580   
     0.52621384504224      0.63065612864040      0.56310342494231   
