Pt12, -52.08894605 <s> Pd </s>          
   1.00000000000000     
    18.8898027349883115    0.0000000000000000    0.0000000000000000
     0.0000000000000000   18.8898027349883115    0.0000000000000000
     0.0000000000000000    0.0000000000000000   18.8898027349883115
   Pd
    12
Direct
  0.5812533978000807  0.5255678649706416  0.4528753381647140
  0.4652392951517217  0.4115484554308478  0.4123892559502394
  0.6093694014093889  0.5928197078163844  0.5679163877861323
  0.4756798560541520  0.5602056028463137  0.5485345932187191
  0.5463135997772161  0.4978957734072590  0.6513923327135449
  0.4003038270321183  0.3517142618295067  0.5144201580269750
  0.3690769396078137  0.6194267903025789  0.4906882679109132
  0.5432611193402053  0.4842406702081238  0.3311641441960780
  0.5110055691694624  0.4257321015005392  0.5399845641157833
  0.3698609099553181  0.4827657442385877  0.4966934169570650
  0.6438889355572631  0.4585949641706544  0.5581479470926771
  0.4526300516939629  0.5573484853914693  0.4037178735686502
 
  0.00000000E+00  0.00000000E+00  0.00000000E+00
  0.00000000E+00  0.00000000E+00  0.00000000E+00
  0.00000000E+00  0.00000000E+00  0.00000000E+00
  0.00000000E+00  0.00000000E+00  0.00000000E+00
  0.00000000E+00  0.00000000E+00  0.00000000E+00
  0.00000000E+00  0.00000000E+00  0.00000000E+00
  0.00000000E+00  0.00000000E+00  0.00000000E+00
  0.00000000E+00  0.00000000E+00  0.00000000E+00
  0.00000000E+00  0.00000000E+00  0.00000000E+00
  0.00000000E+00  0.00000000E+00  0.00000000E+00
  0.00000000E+00  0.00000000E+00  0.00000000E+00
  0.00000000E+00  0.00000000E+00  0.00000000E+00
