Be11, -19.86968542 <s> Ni </s>          
   1.00000000000000     
    19.0741348537639901    0.0000000000000000    0.0000000000000000
     0.0000000000000000   19.0741348537639901    0.0000000000000000
     0.0000000000000000    0.0000000000000000   19.0741348537639901
   Ni
    11
Direct
  0.5010629241950251  0.6428618419059252  0.5841716789282489
  0.5539388567384818  0.5879026832388170  0.6836986785147103
  0.5064016091248169  0.5237823618437283  0.5934163236603606
  0.6234037872371814  0.6219996018634054  0.5877096453599616
  0.5604358737320619  0.5826056067253860  0.4911388560198874
  0.6747842487195082  0.5416249433956661  0.5086139367068921
  0.5063464858839373  0.5030809680901022  0.4178709453908980
  0.5782442480317069  0.4649108651622986  0.5110599455340132
  0.6251154360206732  0.5078270595042789  0.6179493798305172
  0.4408320361628472  0.5699674881687785  0.5002775500489893
  0.4565775194943816  0.4473239780767009  0.5122615016978685
 
  0.00000000E+00  0.00000000E+00  0.00000000E+00
  0.00000000E+00  0.00000000E+00  0.00000000E+00
  0.00000000E+00  0.00000000E+00  0.00000000E+00
  0.00000000E+00  0.00000000E+00  0.00000000E+00
  0.00000000E+00  0.00000000E+00  0.00000000E+00
  0.00000000E+00  0.00000000E+00  0.00000000E+00
  0.00000000E+00  0.00000000E+00  0.00000000E+00
  0.00000000E+00  0.00000000E+00  0.00000000E+00
  0.00000000E+00  0.00000000E+00  0.00000000E+00
  0.00000000E+00  0.00000000E+00  0.00000000E+00
  0.00000000E+00  0.00000000E+00  0.00000000E+00
