Rh11, -739.0 <s> Cu </s>                
   1.00000000000000     
    17.7192639999999990    0.0000000000000000    0.0000000000000000
     0.0000000000000000   17.7192639999999990    0.0000000000000000
     0.0000000000000000    0.0000000000000000   17.7192639999999990
   Cu
    11
Direct
  0.4015699660674379  0.4535022962935820  0.4200473196935740
  0.5358859204956650  0.4884792768858521  0.4396384056493835
  0.5129793168671846  0.4653533447498605  0.5817233889978881
  0.4497940062654242  0.5758154790051622  0.3808711373996014
  0.6242234986583757  0.5380203446419580  0.5364168339219496
  0.6140450616027920  0.4037584671181060  0.5113958815220554
  0.4845334634034340  0.3667943051264261  0.4858878441800631
  0.5238919440285905  0.6019861937745216  0.6048393283653338
  0.4294113106257039  0.5531408958723457  0.5150188127157272
  0.5416140901340437  0.6247862205856749  0.4704023064508077
  0.3820514249975392  0.4283631759465047  0.5537587473959907
 
  0.00000000E+00  0.00000000E+00  0.00000000E+00
  0.00000000E+00  0.00000000E+00  0.00000000E+00
  0.00000000E+00  0.00000000E+00  0.00000000E+00
  0.00000000E+00  0.00000000E+00  0.00000000E+00
  0.00000000E+00  0.00000000E+00  0.00000000E+00
  0.00000000E+00  0.00000000E+00  0.00000000E+00
  0.00000000E+00  0.00000000E+00  0.00000000E+00
  0.00000000E+00  0.00000000E+00  0.00000000E+00
  0.00000000E+00  0.00000000E+00  0.00000000E+00
  0.00000000E+00  0.00000000E+00  0.00000000E+00
  0.00000000E+00  0.00000000E+00  0.00000000E+00
