Rh11, -739.0 <s> Cu </s>
  1.00000000000000
    17.71926400000000     0.00000000000000     0.00000000000000
     0.00000000000000    17.71926400000000     0.00000000000000
     0.00000000000000     0.00000000000000    17.71926400000000
  Cu    
  11    
Direct
     0.40319849852020      0.45744950832130      0.42302557892709   
     0.53521135139241      0.48867383593843      0.44059861219972   
     0.51866270342023      0.45988601379427      0.58460678619627   
     0.45083164229198      0.57714613031112      0.37421654762269   
     0.62047145738972      0.53493695829373      0.53704334517500   
     0.61915978804649      0.40034057403980      0.50770935828317   
     0.48602721484275      0.37044960461871      0.48871178836948   
     0.51488052986181      0.59256296122061      0.60383392755430   
     0.42504226407956      0.55822199341745      0.51036184636149   
     0.53764236804022      0.62193712844415      0.47135745547000   
     0.38887218526082      0.43839529160043      0.55853476013317   
