Si55, -263.19658367 <s> Ag </s>
  1.00000000000000
    24.94204064846414     0.00000000000000     0.00000000000000
     0.00000000000000    24.94204064846414     0.00000000000000
     0.00000000000000     0.00000000000000    24.94204064846414
  Ag    
  55    
Direct
     0.62364431791201      0.53747973167156      0.33834300080776   
     0.74219537480496      0.69824842285848      0.36299746068836   
     0.63817984292902      0.64626388983985      0.38234777457479   
     0.83984588652264      0.61899076772958      0.37388041008680   
     0.44336886817826      0.62069633918728      0.39727952842153   
     0.52579921225609      0.53635283024255      0.40155019463443   
     0.53524736057058      0.69790278705871      0.40982682597977   
     0.67936653103783      0.49226351272846      0.43342673532464   
     0.74406265299821      0.76818690554545      0.45891369950889   
     0.79276327740650      0.52107733283926      0.43554607697695   
     0.78096533154546      0.64905356428334      0.47425830641759   
     0.54594241784824      0.75703272368504      0.51111547126895   
     0.90639633242683      0.67083659011843      0.46831215717126   
     0.63305761961414      0.38772327094787      0.47065570111255   
     0.53023910837296      0.44555394801082      0.47353738199117   
     0.61073951235455      0.64978993830616      0.50002759945284   
     0.65818921111147      0.75355365962874      0.53497556745142   
     0.43064423372617      0.60780845004774      0.51458428997235   
     0.70822970075136      0.57037589697551      0.52094151657758   
     0.83479946673400      0.74641969784835      0.52747294803402   
     0.45864408305014      0.39784066574655      0.55496189781769   
     0.54217742875846      0.55808764600803      0.52520019337435   
     0.83596367086663      0.49953271967221      0.54318031800775   
     0.45671700053545      0.52714702294269      0.60938885681047   
     0.34242663285077      0.55568262335590      0.58686012367886   
     0.88258428276410      0.60392785495630      0.56395282689532   
     0.44216726832896      0.68817376084059      0.59803457971998   
     0.59747575100923      0.56167047842760      0.62852024454148   
     0.47363875212713      0.79822126791879      0.59626344611696   
     0.60228356219162      0.39715223638742      0.58328395605723   
     0.36777263415075      0.43705917434588      0.61833867662240   
     0.51794061781859      0.33344580144881      0.63204522408010   
     0.74967745249421      0.51469050508160      0.62007986446514   
     0.82896910969378      0.66360011981961      0.64415325817183   
     0.71190910804397      0.75184222710064      0.63901344802784   
     0.82867057730051      0.78043477574485      0.64217361054452   
     0.47508653197443      0.43565734219986      0.68043423551969   
     0.39287874721194      0.61848734889140      0.67841842677527   
     0.68634116867363      0.63523951757557      0.65278400504386   
     0.65307170028798      0.46419170303664      0.66310591817254   
     0.51302788968600      0.61617656115626      0.68925360114857   
     0.52283195581153      0.73811750521039      0.68731905947762   
     0.78175517865545      0.58214110159361      0.71168326608466   
     0.63374944530421      0.72997687595028      0.72196031641302   
     0.52375148584523      0.51588602641535      0.76662585843106   
     0.39389600701270      0.63029543655894      0.79951757775749   
     0.68181072859767      0.58580183890390      0.77196182663241   
     0.63612433886066      0.47730167657945      0.78105796222618   
     0.46586921744478      0.73713593643485      0.79519963552194   
     0.52040149854037      0.63121377511933      0.81761604823870   
     0.45009056573610      0.54452021315369      0.85890081607196   
     0.63197795274899      0.67690080153129      0.82616049168617   
     0.37211381205625      0.72277947831449      0.86966550113341   
     0.53669506771784      0.72927632408141      0.88992084197066   
     0.45392822675054      0.65287710794454      0.93106715031113   
