Al54, -172.1647542 <s> Ag </s>          
   1.00000000000000     
    23.9757469964459702    0.0000000000000000    0.0000000000000000
     0.0000000000000000   23.9757469964459702    0.0000000000000000
     0.0000000000000000    0.0000000000000000   23.9757469964459702
   Ag
    54
Direct
  0.6911946578716097  0.6899055386916042  0.5747324378668102
  0.6182018698379318  0.6340314738626858  0.6493444645021711
  0.6893497522782550  0.5748388790591087  0.5697046959004867
  0.5873420713325078  0.7396347010119563  0.5945065558877997
  0.6182912067918939  0.5096924247310004  0.6430272251350109
  0.6895173852295110  0.4587328962514187  0.5562848436835564
  0.5488812356094820  0.5603301579743252  0.7229418292136707
  0.5311973675445596  0.4437365429796528  0.7007807437957680
  0.6884703096693555  0.6387833357682197  0.4688165526705212
  0.6083419104239369  0.3962313393035022  0.6139193269139038
  0.6754677383089182  0.3457651789573605  0.5300338057696317
  0.6327711322892015  0.7387644879448659  0.4830874542715050
  0.4832048972828304  0.6882947417033333  0.5944401841564435
  0.6923906871515551  0.5244778423456927  0.4574912361328191
  0.5828402643014172  0.6401436378759567  0.5324991851737036
  0.4598539605094495  0.6359919041481482  0.6968922928566839
  0.5228155046502636  0.5791868875859477  0.6137176916733542
  0.5927876403089514  0.5213804620123886  0.5270510493965426
  0.6003109922257174  0.2804567818382094  0.5968383389369869
  0.5106134303781102  0.3402494577088868  0.6457276789305143
  0.5180970951189038  0.7342918537564803  0.4939316137747419
  0.6282205033438578  0.4271323519939572  0.4589565491324956
  0.5773910965336410  0.6557361846603820  0.4159912929544722
  0.4402848894367495  0.5218341656860291  0.6766564436827035
  0.6636052903543332  0.5918767670106926  0.3658100052289376
  0.5107260975869926  0.4624759931513266  0.5898948056053860
  0.5781085242597132  0.5250688508402880  0.4075886175078336
  0.4839519724052809  0.5642738131979197  0.5064061072471998
  0.4177141214431440  0.4138523949372990  0.6521489352973842
  0.4066532198996058  0.6006842083368225  0.5960785974012677
  0.4001844811235175  0.4876941123103347  0.5547710217774612
  0.5615234402258118  0.3460451002322489  0.5085674132603700
  0.4226725145611203  0.6679437595208140  0.4958203485648754
  0.5464460519057734  0.3788673626908254  0.3916722111523416
  0.4803217429098097  0.5877543403739978  0.3919678833663689
  0.4500135983894807  0.3736619679848119  0.5431780920089144
  0.4682436841248110  0.7058596484918594  0.3940252104532873
  0.5061672640421612  0.4516950408231425  0.4726573302393212
  0.4007035635544070  0.3019168499554634  0.6264867302384696
  0.4900651814555825  0.2631425599504472  0.5563411943265874
  0.3360054143622880  0.3872760049776048  0.5636342522860748
  0.5599099328195293  0.6043716096123208  0.3124917277161013
  0.4834094436824208  0.4729399118799678  0.3542111785722561
  0.3447066534006433  0.5805284687800607  0.4984514014967761
  0.3058964194731900  0.4690676911559938  0.4811049814417948
  0.4049779017156749  0.5082254846442860  0.4340267500784782
  0.4704016517774312  0.3076885936816640  0.4449186142524578
  0.3730877797332214  0.6335120851337436  0.3951614520727628
  0.4371983495463004  0.3664062277529362  0.3511557815298854
  0.3773945423777810  0.3849764189119212  0.4496346395064641
  0.3775944929133863  0.2851369832017176  0.5127604438605933
  0.4494985979277865  0.6466211016658763  0.2956883358940697
  0.3956437510362101  0.5458530839740240  0.3195939338553980
  0.3497634050760594  0.4455827909872531  0.3551941193186638
 
  0.00000000E+00  0.00000000E+00  0.00000000E+00
  0.00000000E+00  0.00000000E+00  0.00000000E+00
  0.00000000E+00  0.00000000E+00  0.00000000E+00
  0.00000000E+00  0.00000000E+00  0.00000000E+00
  0.00000000E+00  0.00000000E+00  0.00000000E+00
  0.00000000E+00  0.00000000E+00  0.00000000E+00
  0.00000000E+00  0.00000000E+00  0.00000000E+00
  0.00000000E+00  0.00000000E+00  0.00000000E+00
  0.00000000E+00  0.00000000E+00  0.00000000E+00
  0.00000000E+00  0.00000000E+00  0.00000000E+00
  0.00000000E+00  0.00000000E+00  0.00000000E+00
  0.00000000E+00  0.00000000E+00  0.00000000E+00
  0.00000000E+00  0.00000000E+00  0.00000000E+00
  0.00000000E+00  0.00000000E+00  0.00000000E+00
  0.00000000E+00  0.00000000E+00  0.00000000E+00
  0.00000000E+00  0.00000000E+00  0.00000000E+00
  0.00000000E+00  0.00000000E+00  0.00000000E+00
  0.00000000E+00  0.00000000E+00  0.00000000E+00
  0.00000000E+00  0.00000000E+00  0.00000000E+00
  0.00000000E+00  0.00000000E+00  0.00000000E+00
  0.00000000E+00  0.00000000E+00  0.00000000E+00
  0.00000000E+00  0.00000000E+00  0.00000000E+00
  0.00000000E+00  0.00000000E+00  0.00000000E+00
  0.00000000E+00  0.00000000E+00  0.00000000E+00
  0.00000000E+00  0.00000000E+00  0.00000000E+00
  0.00000000E+00  0.00000000E+00  0.00000000E+00
  0.00000000E+00  0.00000000E+00  0.00000000E+00
  0.00000000E+00  0.00000000E+00  0.00000000E+00
  0.00000000E+00  0.00000000E+00  0.00000000E+00
  0.00000000E+00  0.00000000E+00  0.00000000E+00
  0.00000000E+00  0.00000000E+00  0.00000000E+00
  0.00000000E+00  0.00000000E+00  0.00000000E+00
  0.00000000E+00  0.00000000E+00  0.00000000E+00
  0.00000000E+00  0.00000000E+00  0.00000000E+00
  0.00000000E+00  0.00000000E+00  0.00000000E+00
  0.00000000E+00  0.00000000E+00  0.00000000E+00
  0.00000000E+00  0.00000000E+00  0.00000000E+00
  0.00000000E+00  0.00000000E+00  0.00000000E+00
  0.00000000E+00  0.00000000E+00  0.00000000E+00
  0.00000000E+00  0.00000000E+00  0.00000000E+00
  0.00000000E+00  0.00000000E+00  0.00000000E+00
  0.00000000E+00  0.00000000E+00  0.00000000E+00
  0.00000000E+00  0.00000000E+00  0.00000000E+00
  0.00000000E+00  0.00000000E+00  0.00000000E+00
  0.00000000E+00  0.00000000E+00  0.00000000E+00
  0.00000000E+00  0.00000000E+00  0.00000000E+00
  0.00000000E+00  0.00000000E+00  0.00000000E+00
  0.00000000E+00  0.00000000E+00  0.00000000E+00
  0.00000000E+00  0.00000000E+00  0.00000000E+00
  0.00000000E+00  0.00000000E+00  0.00000000E+00
  0.00000000E+00  0.00000000E+00  0.00000000E+00
  0.00000000E+00  0.00000000E+00  0.00000000E+00
  0.00000000E+00  0.00000000E+00  0.00000000E+00
  0.00000000E+00  0.00000000E+00  0.00000000E+00
