Rh13, -737.0 <s> Pd </s>                
   1.00000000000000     
    17.9208789999999993    0.0000000000000000    0.0000000000000000
     0.0000000000000000   17.9208789999999993    0.0000000000000000
     0.0000000000000000    0.0000000000000000   17.9208789999999993
   Pd
    13
Direct
  0.4093497765067627  0.4291143785443918  0.3606350736003429
  0.4157603902780969  0.4295322315257592  0.5016148995740167
  0.4189022549288204  0.4292237915680147  0.6424707656881294
  0.5501073542672386  0.4290907935607774  0.3486935691457988
  0.5573289311241385  0.4299713049614606  0.4897134736237256
  0.5620376732504017  0.4299606543935531  0.6304954254717831
  0.4095749205313115  0.5708484892413914  0.3606349510372177
  0.4158825582707548  0.5705157537772833  0.5015860392979363
  0.4190519760734641  0.5709358339621768  0.6423993894280383
  0.5503205213655332  0.5707830812354974  0.3486186674601763
  0.5574060148966010  0.5699735650353404  0.4896301691207293
  0.5621312352717209  0.5701278478407660  0.6303717267032725
  0.6721463965625699  0.4999222760172887  0.5531358498488261
 
  0.00000000E+00  0.00000000E+00  0.00000000E+00
  0.00000000E+00  0.00000000E+00  0.00000000E+00
  0.00000000E+00  0.00000000E+00  0.00000000E+00
  0.00000000E+00  0.00000000E+00  0.00000000E+00
  0.00000000E+00  0.00000000E+00  0.00000000E+00
  0.00000000E+00  0.00000000E+00  0.00000000E+00
  0.00000000E+00  0.00000000E+00  0.00000000E+00
  0.00000000E+00  0.00000000E+00  0.00000000E+00
  0.00000000E+00  0.00000000E+00  0.00000000E+00
  0.00000000E+00  0.00000000E+00  0.00000000E+00
  0.00000000E+00  0.00000000E+00  0.00000000E+00
  0.00000000E+00  0.00000000E+00  0.00000000E+00
  0.00000000E+00  0.00000000E+00  0.00000000E+00
