Li10, -12.7118617 <s> Cu </s>           
   1.00000000000000     
    18.0595300990979695    0.0000000000000000    0.0000000000000000
     0.0000000000000000   18.0595300990979695    0.0000000000000000
     0.0000000000000000    0.0000000000000000   18.0595300990979695
   Cu
    10
Direct
  0.5440407152529007  0.4282936902708983  0.4885760061133497
  0.4049309713064603  0.3048915359368801  0.4188116207528199
  0.5138211896737148  0.3806475048833933  0.3512499034058515
  0.4161509927162546  0.3818188522425470  0.5443859366460969
  0.4304618765754991  0.4300072055328064  0.4300935041871548
  0.3066146260207475  0.4019108919793239  0.4469659872554220
  0.4435987290821173  0.5244456079469673  0.5161991520717775
  0.5098693633310849  0.5229543574527594  0.3909565225442954
  0.3697997306803968  0.3987617581575654  0.3209087903812178
  0.3619796144089160  0.5275364046449365  0.3931203856901134
 
  0.00000000E+00  0.00000000E+00  0.00000000E+00
  0.00000000E+00  0.00000000E+00  0.00000000E+00
  0.00000000E+00  0.00000000E+00  0.00000000E+00
  0.00000000E+00  0.00000000E+00  0.00000000E+00
  0.00000000E+00  0.00000000E+00  0.00000000E+00
  0.00000000E+00  0.00000000E+00  0.00000000E+00
  0.00000000E+00  0.00000000E+00  0.00000000E+00
  0.00000000E+00  0.00000000E+00  0.00000000E+00
  0.00000000E+00  0.00000000E+00  0.00000000E+00
  0.00000000E+00  0.00000000E+00  0.00000000E+00
