Ti4, -16.08500561 <s> Ag </s>           
   1.00000000000000     
    16.7903615612455290    0.0000000000000000    0.0000000000000000
     0.0000000000000000   16.7903615612455290    0.0000000000000000
     0.0000000000000000    0.0000000000000000   16.7903615612455290
   Ag
     4
Direct
  0.4813169225040618  0.5957909345076436  0.4004010086608433
  0.4136670500201402  0.5876319968229036  0.5395927009114694
  0.6078939086738767  0.3700171711067189  0.5823253324713755
  0.5264041241725891  0.4758635666189743  0.5059151838631617
 
  0.00000000E+00  0.00000000E+00  0.00000000E+00
  0.00000000E+00  0.00000000E+00  0.00000000E+00
  0.00000000E+00  0.00000000E+00  0.00000000E+00
  0.00000000E+00  0.00000000E+00  0.00000000E+00
