Al54, -172.65832173 <s> Ag </s>
  1.00000000000000
    23.52270206955584     0.00000000000000     0.00000000000000
     0.00000000000000    23.52270206955584     0.00000000000000
     0.00000000000000     0.00000000000000    23.52270206955584
  Ag    
  54    
Direct
     0.70016523173946      0.53173083544594      0.34533788611227   
     0.64393776421277      0.63024667796646      0.36690496403892   
     0.65238957299822      0.67527725900871      0.47063481114558   
     0.69654548492512      0.56567583315147      0.45862881548666   
     0.70048008861834      0.51569525122749      0.56794178947850   
     0.70120080913480      0.39420107647557      0.57309768625549   
     0.66950924515043      0.62526561192211      0.57365266884431   
     0.65197490623371      0.42926899691703      0.35882718430462   
     0.65586162420698      0.45051483034118      0.47636171491077   
     0.67320729573278      0.45967928431183      0.67071071779251   
     0.59868278512423      0.52064071436863      0.27816791484523   
     0.59741707223701      0.67784137302690      0.65533639070755   
     0.54516473959881      0.63795957121613      0.43306675014928   
     0.62946793752591      0.73675417135709      0.56392149811696   
     0.48585564225077      0.65152814171157      0.66778009792677   
     0.61024495221637      0.55853813435363      0.65502648850635   
     0.58862594012500      0.55166535872463      0.51166193836133   
     0.56684225687621      0.38873423562811      0.42913807429736   
     0.58502560552325      0.52134429001622      0.39875939352986   
     0.59160911771811      0.45408724973826      0.58114708361446   
     0.61960146327037      0.35277097417885      0.65601893741195   
     0.59447495432810      0.34199448754824      0.53511335828791   
     0.54535645014709      0.42032552585266      0.31077181176453   
     0.54318851226491      0.65453845456062      0.55137321641426   
     0.53911092776723      0.62018198091277      0.31274172185350   
     0.55794548385264      0.45251889903677      0.69732719254355   
     0.45052186541624      0.69560097906489      0.47295928280742   
     0.50576160569858      0.54408036037866      0.59743103155180   
     0.43957694360399      0.62856321303139      0.37548780974686   
     0.49275046825988      0.43563847652717      0.51510384824179   
     0.43073149189932      0.62754827562801      0.56492174476835   
     0.49940622199227      0.54957891312103      0.71979814841696   
     0.47905033232164      0.52106367269058      0.32775328146554   
     0.53783811741764      0.27759585043458      0.45336067694170   
     0.50738858296645      0.37220749271589      0.62417842482961   
     0.47828110540891      0.54263712395711      0.45473847218851   
     0.36547836617873      0.67892112837505      0.64755454170494   
     0.50058734161377      0.32381954565064      0.34952788808288   
     0.46421605604405      0.43393846587839      0.39949468447954   
     0.44041659140783      0.46417286283601      0.66282736279635   
     0.34824537874511      0.70625403473889      0.53220049502878   
     0.36444884725622      0.60873413137877      0.46483576542648   
     0.46473308143582      0.31438119178086      0.53553705647929   
     0.39545996872253      0.39726509090340      0.58208769557843   
     0.37622724560642      0.51839073621513      0.38902504581905   
     0.40429941602770      0.51395787919730      0.54430772190878   
     0.41747096760236      0.32565380463978      0.42434738831895   
     0.39116137742355      0.56790022062560      0.66755122995369   
     0.37076468695106      0.42749696949065      0.46527132974682   
     0.32170242589121      0.48237121986833      0.62576404484796   
     0.30936817014351      0.59525285898831      0.57879814810443   
     0.34393439086390      0.32044237234848      0.51014617670988   
     0.29389323371414      0.51616897651031      0.49245579436465   
     0.27986433466065      0.40988442249964      0.54310859995946   
