Ag12, -929.0 <s> Cu </s>                
   1.00000000000000     
    18.9402620000000006    0.0000000000000000    0.0000000000000000
     0.0000000000000000   18.9402620000000006    0.0000000000000000
     0.0000000000000000    0.0000000000000000   18.9402620000000006
   Cu
    12
Direct
  0.5008949664644403  0.6558349844489738  0.5000000000000000
  0.5430085319718582  0.5484637032641203  0.5648894776294477
  0.4473570685378507  0.6182320865121123  0.6081952590790626
  0.5526429314621490  0.3817679134878879  0.3918047409209370
  0.4473570685378507  0.6182320865121123  0.3918047409209370
  0.4569914680281418  0.4515362967358797  0.4351105223705523
  0.4991050335355598  0.3441650155510264  0.5000000000000000
  0.5526429314621490  0.3817679134878879  0.6081952590790626
  0.4247797210882007  0.5549522990653829  0.5000000000000000
  0.4569914680281418  0.4515362967358797  0.5648894776294477
  0.5430085319718582  0.5484637032641203  0.4351105223705523
  0.5752202789117991  0.4450477009346172  0.5000000000000000
 
  0.00000000E+00  0.00000000E+00  0.00000000E+00
  0.00000000E+00  0.00000000E+00  0.00000000E+00
  0.00000000E+00  0.00000000E+00  0.00000000E+00
  0.00000000E+00  0.00000000E+00  0.00000000E+00
  0.00000000E+00  0.00000000E+00  0.00000000E+00
  0.00000000E+00  0.00000000E+00  0.00000000E+00
  0.00000000E+00  0.00000000E+00  0.00000000E+00
  0.00000000E+00  0.00000000E+00  0.00000000E+00
  0.00000000E+00  0.00000000E+00  0.00000000E+00
  0.00000000E+00  0.00000000E+00  0.00000000E+00
  0.00000000E+00  0.00000000E+00  0.00000000E+00
  0.00000000E+00  0.00000000E+00  0.00000000E+00
