Ag12, -929.0 <s> Cu </s>
  1.00000000000000
    18.94026200000000     0.00000000000000     0.00000000000000
     0.00000000000000    18.94026200000000     0.00000000000000
     0.00000000000000     0.00000000000000    18.94026200000000
  Cu    
  12    
Direct
     0.49900440977939      0.63676672575411      0.50000000000000   
     0.55412587638514      0.53710414315449      0.56922582256352   
     0.44587412361486      0.59626129349896      0.61293481650583   
     0.55412587638514      0.40373870650104      0.38706518349417   
     0.44587412361486      0.59626129349896      0.38706518349417   
     0.44587412361486      0.46289585684551      0.43077417743648   
     0.50099559022061      0.36323327424589      0.50000000000000   
     0.55412587638514      0.40373870650104      0.61293481650583   
     0.39549516790134      0.55902890841466      0.50000000000000   
     0.44587412361486      0.46289585684551      0.56922582256352   
     0.55412587638514      0.53710414315449      0.43077417743648   
     0.60450483209866      0.44097109158534      0.50000000000000   
