Na11, -9.94221823 <s> Ag </s>           
   1.00000000000000     
    20.4602713802429186    0.0000000000000000    0.0000000000000000
     0.0000000000000000   20.4602713802429186    0.0000000000000000
     0.0000000000000000    0.0000000000000000   20.4602713802429186
   Ag
    11
Direct
  0.4727956335723487  0.3708535637622968  0.2328255976613691
  0.5164160092172460  0.4613402832471036  0.3267245622625595
  0.3853324830810191  0.4352551083883970  0.3139528908685300
  0.3668110220482209  0.3018052395360385  0.3012799096072202
  0.4825348702403774  0.3345779294150822  0.3637074971146203
  0.2837414209591860  0.3762145306042849  0.3821916054835853
  0.3272305127922626  0.5026971298166476  0.4145180888363348
  0.3801516271445327  0.3030223440605761  0.4441715621633787
  0.2498733598134118  0.2996364907602064  0.4887505445505422
  0.4397096678945403  0.4319111714599060  0.4450499692799926
  0.3218861354991531  0.4091689512117309  0.5133105144341801
 
  0.00000000E+00  0.00000000E+00  0.00000000E+00
  0.00000000E+00  0.00000000E+00  0.00000000E+00
  0.00000000E+00  0.00000000E+00  0.00000000E+00
  0.00000000E+00  0.00000000E+00  0.00000000E+00
  0.00000000E+00  0.00000000E+00  0.00000000E+00
  0.00000000E+00  0.00000000E+00  0.00000000E+00
  0.00000000E+00  0.00000000E+00  0.00000000E+00
  0.00000000E+00  0.00000000E+00  0.00000000E+00
  0.00000000E+00  0.00000000E+00  0.00000000E+00
  0.00000000E+00  0.00000000E+00  0.00000000E+00
  0.00000000E+00  0.00000000E+00  0.00000000E+00
