Pt10, -43.0824499 <s> Ag </s>           
   1.00000000000000     
    17.8026097503435814    0.0000000000000000    0.0000000000000000
     0.0000000000000000   17.8026097503435814    0.0000000000000000
     0.0000000000000000    0.0000000000000000   17.8026097503435814
   Ag
    10
Direct
  0.6037099811883434  0.3860124281440811  0.4290608474138195
  0.5797176011354731  0.6879154384196822  0.4555331813219970
  0.5865084695460900  0.5920644361896585  0.5739757779919853
  0.5874647458723088  0.5375474406020662  0.4238268957304341
  0.5872454469830499  0.4879660029100862  0.6856154494977830
  0.5257459291037929  0.4430258830195406  0.5495890597771994
  0.4513116540527277  0.5895739258228162  0.4848441486886685
  0.4475821920324495  0.5510646423683954  0.6370616342605695
  0.4580421819501900  0.4517662905300189  0.4065613251049626
  0.3697226839233558  0.4616661228023198  0.5344829221490304
 
  0.00000000E+00  0.00000000E+00  0.00000000E+00
  0.00000000E+00  0.00000000E+00  0.00000000E+00
  0.00000000E+00  0.00000000E+00  0.00000000E+00
  0.00000000E+00  0.00000000E+00  0.00000000E+00
  0.00000000E+00  0.00000000E+00  0.00000000E+00
  0.00000000E+00  0.00000000E+00  0.00000000E+00
  0.00000000E+00  0.00000000E+00  0.00000000E+00
  0.00000000E+00  0.00000000E+00  0.00000000E+00
  0.00000000E+00  0.00000000E+00  0.00000000E+00
  0.00000000E+00  0.00000000E+00  0.00000000E+00
