Al12, -32.893066 <s> Ni </s>            
   1.00000000000000     
    20.3911960702138408    0.0000000000000000    0.0000000000000000
     0.0000000000000000   20.3911960702138408    0.0000000000000000
     0.0000000000000000    0.0000000000000000   20.3911960702138408
   Ni
    12
Direct
  0.4109535777280967  0.4863907436512389  0.2765071254421486
  0.3733124519712799  0.3859670791000681  0.3501634996873259
  0.4570161931834534  0.3492076618250351  0.4513064669829283
  0.5215620525526684  0.4287358799093675  0.3506776282131787
  0.5019980307054351  0.5677937129231132  0.3175013984575981
  0.4133586156422110  0.5021941836464959  0.4191620351705993
  0.5499950597240820  0.5503151749673739  0.4344364843762094
  0.5657519270756779  0.4252432122844807  0.4906039237465751
  0.3473638775648688  0.4002126036838287  0.5162054431543935
  0.4692055611850722  0.3668215731876392  0.5881831023018828
  0.4598812489110037  0.4988861110085037  0.5486010704528429
  0.3663758057709344  0.4456676509074312  0.6401430546360176
 
  0.00000000E+00  0.00000000E+00  0.00000000E+00
  0.00000000E+00  0.00000000E+00  0.00000000E+00
  0.00000000E+00  0.00000000E+00  0.00000000E+00
  0.00000000E+00  0.00000000E+00  0.00000000E+00
  0.00000000E+00  0.00000000E+00  0.00000000E+00
  0.00000000E+00  0.00000000E+00  0.00000000E+00
  0.00000000E+00  0.00000000E+00  0.00000000E+00
  0.00000000E+00  0.00000000E+00  0.00000000E+00
  0.00000000E+00  0.00000000E+00  0.00000000E+00
  0.00000000E+00  0.00000000E+00  0.00000000E+00
  0.00000000E+00  0.00000000E+00  0.00000000E+00
  0.00000000E+00  0.00000000E+00  0.00000000E+00
