Y11, -627.0 <s> Pd </s>                 
   1.00000000000000     
    18.9274020000000007    0.0000000000000000    0.0000000000000000
     0.0000000000000000   18.9274020000000007    0.0000000000000000
     0.0000000000000000    0.0000000000000000   18.9274020000000007
   Pd
    11
Direct
  0.6027335282882179  0.4558982898048857  0.5062117364657441
  0.4586332050101527  0.4939474247239183  0.4774902338113887
  0.5012020642211495  0.3629513434616547  0.4872144754535469
  0.4630800255838798  0.6308776668506386  0.4943588521865436
  0.4712099357634680  0.5730408800769449  0.3625016211566154
  0.3875130198676752  0.4063320120068712  0.5605068465129972
  0.5850960010761069  0.5792378604281027  0.4403443753650779
  0.5471603395521103  0.4545524157945191  0.3793699559457731
  0.4179769577569535  0.5415007429452944  0.6006644413046529
  0.5531843016428970  0.5670041026653641  0.5791785139601696
  0.5122106434579419  0.4346573056829370  0.6121589367271950
 
  0.00000000E+00  0.00000000E+00  0.00000000E+00
  0.00000000E+00  0.00000000E+00  0.00000000E+00
  0.00000000E+00  0.00000000E+00  0.00000000E+00
  0.00000000E+00  0.00000000E+00  0.00000000E+00
  0.00000000E+00  0.00000000E+00  0.00000000E+00
  0.00000000E+00  0.00000000E+00  0.00000000E+00
  0.00000000E+00  0.00000000E+00  0.00000000E+00
  0.00000000E+00  0.00000000E+00  0.00000000E+00
  0.00000000E+00  0.00000000E+00  0.00000000E+00
  0.00000000E+00  0.00000000E+00  0.00000000E+00
  0.00000000E+00  0.00000000E+00  0.00000000E+00
