Ag12, -941.0 <s> Cu </s>
  1.00000000000000
    19.78025800000000     0.00000000000000     0.00000000000000
     0.00000000000000    19.78025800000000     0.00000000000000
     0.00000000000000     0.00000000000000    19.78025800000000
  Cu    
  12    
Direct
     0.55389349716244      0.44741497003526      0.56539045751100   
     0.55389349716244      0.57138240687231      0.56556836835283   
     0.44325760092325      0.51001242574319      0.56337131275499   
     0.45840400847534      0.62037909680266      0.50000000000000   
     0.55389349716244      0.57138240687231      0.43443163164717   
     0.55389349716244      0.44741497003526      0.43460954248900   
     0.44325760092325      0.51001242574319      0.43662868724501   
     0.64474367956306      0.50989880090072      0.50000000000000   
     0.64181399285054      0.38729918318017      0.50000000000000   
     0.34753817294492      0.45220546746835      0.50000000000000   
     0.45962178283478      0.39867044171690      0.50000000000000   
     0.34578917929866      0.57392739170257      0.50000000000000   
