Pt42, -210.09285461 <s> Ag </s>
  1.00000000000000
    23.72106647962562     0.00000000000000     0.00000000000000
     0.00000000000000    23.72106647962562     0.00000000000000
     0.00000000000000     0.00000000000000    23.72106647962562
  Ag    
  42    
Direct
     0.61282803827976      0.50045309176823      0.39960136501822   
     0.64658352619843      0.59381020970213      0.45539095530680   
     0.66346361485516      0.49005690997590      0.50287779678852   
     0.61793936330914      0.39395016692666      0.45047706035856   
     0.67155306863956      0.38518249133062      0.55093495709463   
     0.58758071364131      0.60840855976735      0.35706089627575   
     0.56499430011254      0.40449386149532      0.35195864654557   
     0.66017231917257      0.58528342254254      0.57271339847951   
     0.69610900619368      0.48516972453141      0.61502982152044   
     0.53652708814897      0.50582536658814      0.30811543271688   
     0.50276852067907      0.51670818975779      0.43342839379057   
     0.59852030729132      0.42725089217263      0.62641461807264   
     0.64365292386141      0.68774221866044      0.52931378135682   
     0.55615886707266      0.67200028641362      0.45612487159989   
     0.50651802972331      0.61072084731552      0.27495383568193   
     0.56174138816400      0.33628362212414      0.54127388087355   
     0.67482329914107      0.57520821697934      0.68356892045717   
     0.55209241309304      0.56804532902504      0.52165910707331   
     0.50045729723697      0.36970287303135      0.44763281160177   
     0.54412559664157      0.45433079779976      0.52261959846418   
     0.45717992501846      0.43693842483380      0.36044437486862   
     0.57435825255523      0.53724442599708      0.64928396281689   
     0.47795056162419      0.62411892545885      0.38700366347321   
     0.42299225165673      0.54515533923772      0.31764482127735   
     0.62556367253456      0.64868863451939      0.74720622823984   
     0.34978778189359      0.47231352719843      0.36620232502000   
     0.38713443165200      0.37784078048802      0.42957154382108   
     0.49330952539369      0.38269939175576      0.61922687943001   
     0.53845751224645      0.67201622315052      0.57327938101104   
     0.47554842512735      0.51830231610796      0.58888165328055   
     0.52342559495307      0.45021472622429      0.70964962136536   
     0.39304258604724      0.56060116845740      0.43293484572745   
     0.45298042528934      0.63177184789082      0.49983026162284   
     0.53931395335626      0.63980349809727      0.68250128825804   
     0.42771073358592      0.41466055612445      0.53219343296504   
     0.33962953373498      0.46921778401571      0.47997490898285   
     0.44242992414143      0.62848981311428      0.61784518767563   
     0.37393628980710      0.56083743954358      0.54624104503675   
     0.41687942045667      0.45461395088569      0.66635267871602   
     0.46613172512088      0.55382612808208      0.70728285866315   
     0.33266772089606      0.46267623295952      0.59123774486832   
     0.35806535120007      0.55444706769632      0.66116642355013   
