Pt39, -194.56058024 <s> Ag </s>         
   1.00000000000000     
    22.7558344159087618    0.0000000000000000    0.0000000000000000
     0.0000000000000000   22.7558344159087618    0.0000000000000000
     0.0000000000000000    0.0000000000000000   22.7558344159087618
   Ag
    39
Direct
  0.5625606676442161  0.6800711117323877  0.4706902686024099
  0.4840021611032120  0.5954899319861366  0.6355444025362147
  0.6762727426227868  0.6572274015295845  0.5083539288904458
  0.4621536147878273  0.6821549270855410  0.5462349495850573
  0.5989679868316872  0.5736456056467356  0.6802160431350669
  0.6300941598220686  0.5546421629401365  0.5626415191385011
  0.6459003024812441  0.6405762849906592  0.3903443709155032
  0.3613081417069896  0.6508251566645085  0.4766800302557122
  0.3942512726109028  0.5200936322602142  0.6768750682500486
  0.4618311259824209  0.5698562924724810  0.4989196925079550
  0.6923383528458728  0.5442628675721015  0.4521343898765183
  0.5210100931729779  0.4860472030369952  0.5752326499099533
  0.3323739368214610  0.4695510101930266  0.5808197661526644
  0.6248456557294574  0.4556237184451755  0.6435758882369119
  0.3706262495050421  0.5929307867271515  0.5834899667273020
  0.5418756661545857  0.3701707109065627  0.6444354238388409
  0.5128655515865634  0.4852063702715912  0.6966468445585687
  0.4564318060398816  0.6905948711801437  0.4164608992347313
  0.4296432988063202  0.4126597661591428  0.6331939435928354
  0.3625860931895493  0.3492991061322263  0.5544474586102157
  0.5757361579636066  0.6637248323073918  0.5910196274906894
  0.7203640406589700  0.5261728820115981  0.6534075686503170
  0.4850707662199142  0.3446885448168914  0.5393421657149428
  0.4285109826903766  0.4492001941547815  0.5004691990325734
  0.3382667025600615  0.5322232979444895  0.4733800540344824
  0.5992369656555190  0.3925474708994139  0.5363208079154912
  0.5654659285070387  0.5130239983518543  0.4645813416534431
  0.3056006071266135  0.4136833201105396  0.4683394707364645
  0.6926807414155129  0.6423923122889599  0.6297998330659517
  0.5308651406248530  0.6084843353324529  0.3692840985775721
  0.4115636613455930  0.5786454961012982  0.3819576635660175
  0.7051449892440770  0.4589866115240609  0.5440180448494567
  0.4084791231587422  0.3460388376237678  0.4363985342888330
  0.4981804045731001  0.4914887666548250  0.3584948342123009
  0.6183196407003287  0.5227841846859449  0.3543859721420518
  0.5245195743789975  0.3977432213717064  0.4333656599703857
  0.7615227537998999  0.5770527275583197  0.5489737705988978
  0.3851910172554905  0.4569355220932532  0.3842479724617846
  0.6494811184155262  0.4293937219752517  0.4314150722221969
 
  0.00000000E+00  0.00000000E+00  0.00000000E+00
  0.00000000E+00  0.00000000E+00  0.00000000E+00
  0.00000000E+00  0.00000000E+00  0.00000000E+00
  0.00000000E+00  0.00000000E+00  0.00000000E+00
  0.00000000E+00  0.00000000E+00  0.00000000E+00
  0.00000000E+00  0.00000000E+00  0.00000000E+00
  0.00000000E+00  0.00000000E+00  0.00000000E+00
  0.00000000E+00  0.00000000E+00  0.00000000E+00
  0.00000000E+00  0.00000000E+00  0.00000000E+00
  0.00000000E+00  0.00000000E+00  0.00000000E+00
  0.00000000E+00  0.00000000E+00  0.00000000E+00
  0.00000000E+00  0.00000000E+00  0.00000000E+00
  0.00000000E+00  0.00000000E+00  0.00000000E+00
  0.00000000E+00  0.00000000E+00  0.00000000E+00
  0.00000000E+00  0.00000000E+00  0.00000000E+00
  0.00000000E+00  0.00000000E+00  0.00000000E+00
  0.00000000E+00  0.00000000E+00  0.00000000E+00
  0.00000000E+00  0.00000000E+00  0.00000000E+00
  0.00000000E+00  0.00000000E+00  0.00000000E+00
  0.00000000E+00  0.00000000E+00  0.00000000E+00
  0.00000000E+00  0.00000000E+00  0.00000000E+00
  0.00000000E+00  0.00000000E+00  0.00000000E+00
  0.00000000E+00  0.00000000E+00  0.00000000E+00
  0.00000000E+00  0.00000000E+00  0.00000000E+00
  0.00000000E+00  0.00000000E+00  0.00000000E+00
  0.00000000E+00  0.00000000E+00  0.00000000E+00
  0.00000000E+00  0.00000000E+00  0.00000000E+00
  0.00000000E+00  0.00000000E+00  0.00000000E+00
  0.00000000E+00  0.00000000E+00  0.00000000E+00
  0.00000000E+00  0.00000000E+00  0.00000000E+00
  0.00000000E+00  0.00000000E+00  0.00000000E+00
  0.00000000E+00  0.00000000E+00  0.00000000E+00
  0.00000000E+00  0.00000000E+00  0.00000000E+00
  0.00000000E+00  0.00000000E+00  0.00000000E+00
  0.00000000E+00  0.00000000E+00  0.00000000E+00
  0.00000000E+00  0.00000000E+00  0.00000000E+00
  0.00000000E+00  0.00000000E+00  0.00000000E+00
  0.00000000E+00  0.00000000E+00  0.00000000E+00
  0.00000000E+00  0.00000000E+00  0.00000000E+00
