Pt46, -233.06285206 <s> Ag </s>         
   1.00000000000000     
    23.3408034340502013    0.0000000000000000    0.0000000000000000
     0.0000000000000000   23.3408034340502013    0.0000000000000000
     0.0000000000000000    0.0000000000000000   23.3408034340502013
   Ag
    46
Direct
  0.4788477245478591  0.2799638371219682  0.4348996697820727
  0.5537096238560680  0.3228099654600495  0.3517426587856103
  0.4453490030868612  0.3708446041901615  0.3664461616466475
  0.6001124691631382  0.3319908773644383  0.5843250577574020
  0.3996232098854837  0.3584172550336833  0.4796357347633184
  0.5360072226298873  0.4366017191758287  0.3248347122340159
  0.4880903433689613  0.3215168687948773  0.5467962813971551
  0.3449684255078994  0.4259407731340512  0.4003389768679342
  0.5787613546045276  0.3361704881353034  0.4665545986515377
  0.6321456533956966  0.5110755510821771  0.3468587705585897
  0.4046108865961384  0.3965293331794519  0.5943017673700921
  0.7109267694645524  0.5108570963073183  0.5769073289095280
  0.6565567747692240  0.4122334263466269  0.5194722626296723
  0.6425860095125273  0.5574495577459201  0.6604173691134918
  0.5747893880323033  0.4561146628734825  0.4382749374544387
  0.4247191208541954  0.4870475321482312  0.3347745986302298
  0.4568156295263244  0.4690292320178937  0.4542332140406086
  0.3531275126973416  0.4687479425460966  0.5149019781610384
  0.5161915868356969  0.3922763306538493  0.6415850468440455
  0.4301901591274167  0.4577732200596271  0.6949185328331248
  0.6334543808382946  0.4338830964932047  0.6400703257753668
  0.6753222979271007  0.5162486843760412  0.4621758936528352
  0.5205365056415249  0.5462272327569444  0.3750043920957115
  0.6128082423225226  0.6072236660418743  0.4207702543685778
  0.6447199623273462  0.6114674524767022  0.5383907327536710
  0.5869865949582155  0.5036368938439554  0.5538526852806226
  0.3567499914842550  0.5214275969932328  0.6241778182877434
  0.5374832742393248  0.5991772934760304  0.6080887591083797
  0.5120851683521582  0.5759767230946071  0.4928530135707684
  0.7326050878195515  0.6236204507285327  0.6192772565489884
  0.5416814783795147  0.5004787914027723  0.6852435355265323
  0.5546624281230743  0.6152108756930932  0.7269067391111711
  0.3571173131433855  0.5430425376092282  0.4214280433313961
  0.4233925317001452  0.6097551334537257  0.3490401179707361
  0.4665440877883391  0.4992045324480738  0.5778334994297835
  0.6018429557748814  0.7103865921728060  0.4799408689018809
  0.4469929760388512  0.5782773317996840  0.6890155083345263
  0.6272349080996017  0.6768855654737739  0.6539347675111743
  0.4929883868749060  0.6982278512419074  0.5300039580392102
  0.6892156114310138  0.7215206509345704  0.5610436132561478
  0.5089111460811293  0.6668279951144698  0.4126635022125746
  0.3198156293996984  0.5855030609952345  0.5291069486761970
  0.5001293886317251  0.6984594978924746  0.6556903428988068
  0.4030307507324751  0.6451046366186760  0.4647227838207732
  0.4196482095606955  0.6200541459935728  0.5810025218111096
  0.5769465090390337  0.7598161216746768  0.5865771434656590
 
  0.00000000E+00  0.00000000E+00  0.00000000E+00
  0.00000000E+00  0.00000000E+00  0.00000000E+00
  0.00000000E+00  0.00000000E+00  0.00000000E+00
  0.00000000E+00  0.00000000E+00  0.00000000E+00
  0.00000000E+00  0.00000000E+00  0.00000000E+00
  0.00000000E+00  0.00000000E+00  0.00000000E+00
  0.00000000E+00  0.00000000E+00  0.00000000E+00
  0.00000000E+00  0.00000000E+00  0.00000000E+00
  0.00000000E+00  0.00000000E+00  0.00000000E+00
  0.00000000E+00  0.00000000E+00  0.00000000E+00
  0.00000000E+00  0.00000000E+00  0.00000000E+00
  0.00000000E+00  0.00000000E+00  0.00000000E+00
  0.00000000E+00  0.00000000E+00  0.00000000E+00
  0.00000000E+00  0.00000000E+00  0.00000000E+00
  0.00000000E+00  0.00000000E+00  0.00000000E+00
  0.00000000E+00  0.00000000E+00  0.00000000E+00
  0.00000000E+00  0.00000000E+00  0.00000000E+00
  0.00000000E+00  0.00000000E+00  0.00000000E+00
  0.00000000E+00  0.00000000E+00  0.00000000E+00
  0.00000000E+00  0.00000000E+00  0.00000000E+00
  0.00000000E+00  0.00000000E+00  0.00000000E+00
  0.00000000E+00  0.00000000E+00  0.00000000E+00
  0.00000000E+00  0.00000000E+00  0.00000000E+00
  0.00000000E+00  0.00000000E+00  0.00000000E+00
  0.00000000E+00  0.00000000E+00  0.00000000E+00
  0.00000000E+00  0.00000000E+00  0.00000000E+00
  0.00000000E+00  0.00000000E+00  0.00000000E+00
  0.00000000E+00  0.00000000E+00  0.00000000E+00
  0.00000000E+00  0.00000000E+00  0.00000000E+00
  0.00000000E+00  0.00000000E+00  0.00000000E+00
  0.00000000E+00  0.00000000E+00  0.00000000E+00
  0.00000000E+00  0.00000000E+00  0.00000000E+00
  0.00000000E+00  0.00000000E+00  0.00000000E+00
  0.00000000E+00  0.00000000E+00  0.00000000E+00
  0.00000000E+00  0.00000000E+00  0.00000000E+00
  0.00000000E+00  0.00000000E+00  0.00000000E+00
  0.00000000E+00  0.00000000E+00  0.00000000E+00
  0.00000000E+00  0.00000000E+00  0.00000000E+00
  0.00000000E+00  0.00000000E+00  0.00000000E+00
  0.00000000E+00  0.00000000E+00  0.00000000E+00
  0.00000000E+00  0.00000000E+00  0.00000000E+00
  0.00000000E+00  0.00000000E+00  0.00000000E+00
  0.00000000E+00  0.00000000E+00  0.00000000E+00
  0.00000000E+00  0.00000000E+00  0.00000000E+00
  0.00000000E+00  0.00000000E+00  0.00000000E+00
  0.00000000E+00  0.00000000E+00  0.00000000E+00
