Ag13, -894.0 <s> Pd </s>                
   1.00000000000000     
    19.6861390000000007    0.0000000000000000    0.0000000000000000
     0.0000000000000000   19.6861390000000007    0.0000000000000000
     0.0000000000000000    0.0000000000000000   19.6861390000000007
   Pd
    13
Direct
  0.5000000000000000  0.6337453958925338  0.6314704981637098
  0.4260757666306858  0.4336076205694620  0.5474421234628168
  0.4260757666306858  0.5663923794305379  0.5474421234628168
  0.4307405079711681  0.5000000000000000  0.4260484268418965
  0.5000000000000000  0.6158810826686602  0.4491763468432929
  0.5739242333693143  0.5663923794305379  0.5474421234628168
  0.5739242333693143  0.4336076205694620  0.5474421234628168
  0.5692594920288320  0.5000000000000000  0.4260484268418965
  0.5000000000000000  0.5000000000000000  0.6438474793694332
  0.5000000000000000  0.3662546041074662  0.6314704981637098
  0.5000000000000000  0.4333664128105372  0.3264967403007600
  0.5000000000000000  0.3841189173313398  0.4491763468432929
  0.5000000000000000  0.5666335871894629  0.3264967403007600
 
  0.00000000E+00  0.00000000E+00  0.00000000E+00
  0.00000000E+00  0.00000000E+00  0.00000000E+00
  0.00000000E+00  0.00000000E+00  0.00000000E+00
  0.00000000E+00  0.00000000E+00  0.00000000E+00
  0.00000000E+00  0.00000000E+00  0.00000000E+00
  0.00000000E+00  0.00000000E+00  0.00000000E+00
  0.00000000E+00  0.00000000E+00  0.00000000E+00
  0.00000000E+00  0.00000000E+00  0.00000000E+00
  0.00000000E+00  0.00000000E+00  0.00000000E+00
  0.00000000E+00  0.00000000E+00  0.00000000E+00
  0.00000000E+00  0.00000000E+00  0.00000000E+00
  0.00000000E+00  0.00000000E+00  0.00000000E+00
  0.00000000E+00  0.00000000E+00  0.00000000E+00
