Nb11, -823.0 <s> Cu </s>                
   1.00000000000000     
    17.2451739999999987    0.0000000000000000    0.0000000000000000
     0.0000000000000000   17.2451739999999987    0.0000000000000000
     0.0000000000000000    0.0000000000000000   17.2451739999999987
   Cu
    11
Direct
  0.6241794460776282  0.5509835624228663  0.5373168042034743
  0.3842087744312070  0.4778097043704150  0.4258264372684260
  0.3933266146086132  0.6171571395940381  0.4681081127886256
  0.4474702667234092  0.4017543320086590  0.5265139465611440
  0.5053704394409415  0.4054147426021020  0.3975801689264039
  0.5893988471750905  0.4083464181149042  0.5196950344584338
  0.6338114845397227  0.4747882647917367  0.4127387840874318
  0.5208540253704570  0.4909156834401331  0.6124693117085215
  0.5028602234820980  0.6227509274110237  0.5654008570534887
  0.3911270307790125  0.5259456532242016  0.5659320698745099
  0.5073928377060084  0.5241335430224792  0.4684184634037290
 
  0.00000000E+00  0.00000000E+00  0.00000000E+00
  0.00000000E+00  0.00000000E+00  0.00000000E+00
  0.00000000E+00  0.00000000E+00  0.00000000E+00
  0.00000000E+00  0.00000000E+00  0.00000000E+00
  0.00000000E+00  0.00000000E+00  0.00000000E+00
  0.00000000E+00  0.00000000E+00  0.00000000E+00
  0.00000000E+00  0.00000000E+00  0.00000000E+00
  0.00000000E+00  0.00000000E+00  0.00000000E+00
  0.00000000E+00  0.00000000E+00  0.00000000E+00
  0.00000000E+00  0.00000000E+00  0.00000000E+00
  0.00000000E+00  0.00000000E+00  0.00000000E+00
