Au11, -991.0 <s> Cu </s>
  1.00000000000000
    20.83887000000000     0.00000000000000     0.00000000000000
     0.00000000000000    20.83887000000000     0.00000000000000
     0.00000000000000     0.00000000000000    20.83887000000000
  Cu    
  11    
Direct
     0.39317664312396      0.41612930677011      0.50306078625914   
     0.42195058155100      0.52934067669867      0.49797608888512   
     0.45491648709295      0.63599727445771      0.49448150989296   
     0.53298518059199      0.55398087499377      0.49751995664874   
     0.50244819590467      0.44634998745970      0.50234945705230   
     0.61438721234114      0.47453727338104      0.50137554293522   
     0.64401118123980      0.58199640175033      0.49648973557825   
     0.56463415456458      0.66191746462330      0.49332894954861   
     0.47174062076620      0.33781752083469      0.50804196899680   
     0.58293120133788      0.36760273047540      0.50715353793427   
     0.31681852899088      0.49433048230780      0.49822247876353   
