Al41, -129.31209299 <s> Ag </s>
  1.00000000000000
    23.82112107877865     0.00000000000000     0.00000000000000
     0.00000000000000    23.82112107877865     0.00000000000000
     0.00000000000000     0.00000000000000    23.82112107877865
  Ag    
  41    
Direct
     0.48715891517302      0.70611532701007      0.53381149927809   
     0.38969466658763      0.62069433871789      0.54913728068182   
     0.57456704625042      0.69412375103680      0.61052081603690   
     0.48269437690854      0.61921334036318      0.61736438390051   
     0.58264372347619      0.59494392587079      0.67718373206307   
     0.40543310613244      0.69200920487995      0.45587629276072   
     0.35688249969330      0.51350578356662      0.51771817756026   
     0.44558034852034      0.49207351584474      0.43682031395391   
     0.46160037670568      0.51602301822498      0.57113299693826   
     0.59754363738942      0.68906709981367      0.48340077548231   
     0.49083782368231      0.52849036902486      0.69340810969984   
     0.37876371293142      0.42992694044888      0.59600660364046   
     0.67365391122403      0.66429298267827      0.67617989942560   
     0.37813457984365      0.58894939428272      0.41872465814362   
     0.48220260192394      0.59760173648624      0.48211139528780   
     0.67860670706989      0.67253985817717      0.56066903326299   
     0.58049647627835      0.59099370636078      0.54921387042412   
     0.32638883097314      0.48605198079561      0.40523953420521   
     0.48487492297522      0.42545086933270      0.64604533391343   
     0.51136384823888      0.68847108846652      0.40709899521647   
     0.35321013928734      0.40259387211126      0.47863418122856   
     0.48062469788403      0.58344447244827      0.36093796288176   
     0.55526033224998      0.48852862327156      0.49298283796883   
     0.58267379140477      0.58949051536954      0.42262148490577   
     0.38540604068103      0.32243670578065      0.55066180290117   
     0.68015316672004      0.56421099825199      0.61118580329679   
     0.68253296523815      0.58925041456083      0.48806998491354   
     0.46915851339170      0.40674681498824      0.52200310045209   
     0.57628379921306      0.49641028357711      0.61766936035719   
     0.49528885444265      0.31793034226075      0.60680682384165   
     0.46941816455994      0.47712241433083      0.31833846733536   
     0.40150287326485      0.40310464952341      0.36757360027304   
     0.57103948822036      0.48930724881276      0.36553101312271   
     0.51547920457248      0.39992946190826      0.41054956681772   
     0.43633517618860      0.32137126193383      0.44104211900370   
     0.66178283619565      0.49723922781302      0.42984804385218   
     0.62698741763282      0.39484893710077      0.46438784543178   
     0.46574692123692      0.23985071775656      0.52568807553347   
     0.66792820726216      0.46871669285986      0.54751279306642   
     0.54612195818392      0.31783068359628      0.49072404198684   
     0.58307364637582      0.39240242676709      0.57502992339808   
