Co11, -949.0 <s> Pd </s>                
   1.00000000000000     
    18.9659100000000009    0.0000000000000000    0.0000000000000000
     0.0000000000000000   18.9659100000000009    0.0000000000000000
     0.0000000000000000    0.0000000000000000   18.9659100000000009
   Pd
    11
Direct
  0.4337754227344926  0.4921264630503330  0.5775086039362991
  0.4338870941531091  0.4917982499272402  0.4224319716153963
  0.3797952173265237  0.5999507411418971  0.4997373394129293
  0.5339807173806342  0.4224614966748376  0.5002053109651788
  0.5147248113596821  0.5833580039165113  0.4998182739923956
  0.3175098836478066  0.4781046927749865  0.4999239101593591
  0.4067735300886884  0.3744369125010166  0.5001693703875534
  0.5791318340602576  0.5097882052331854  0.5951706732618669
  0.5792779137628798  0.5093415159375567  0.4049000176708989
  0.6688261527579554  0.4500480293943387  0.5002105567348525
  0.6523174291204390  0.5885856894481037  0.4999239782557248
 
  0.00000000E+00  0.00000000E+00  0.00000000E+00
  0.00000000E+00  0.00000000E+00  0.00000000E+00
  0.00000000E+00  0.00000000E+00  0.00000000E+00
  0.00000000E+00  0.00000000E+00  0.00000000E+00
  0.00000000E+00  0.00000000E+00  0.00000000E+00
  0.00000000E+00  0.00000000E+00  0.00000000E+00
  0.00000000E+00  0.00000000E+00  0.00000000E+00
  0.00000000E+00  0.00000000E+00  0.00000000E+00
  0.00000000E+00  0.00000000E+00  0.00000000E+00
  0.00000000E+00  0.00000000E+00  0.00000000E+00
  0.00000000E+00  0.00000000E+00  0.00000000E+00
