Ag12, -930.0 <s> Ag </s>                
   1.00000000000000     
    19.9599820000000001    0.0000000000000000    0.0000000000000000
     0.0000000000000000   19.9599820000000001    0.0000000000000000
     0.0000000000000000    0.0000000000000000   19.9599820000000001
   Ag
    12
Direct
  0.5081400292631234  0.6715382852574369  0.5000000000000000
  0.5495321810356448  0.5512102798193964  0.5708973261681090
  0.4491888157491741  0.6334710308200892  0.6174337609853709
  0.5508111842508260  0.3665289691799109  0.3825662390146290
  0.4491888157491741  0.6334710308200892  0.3825662390146290
  0.4504678189643551  0.4487897201806035  0.4291026738318910
  0.4918599707368767  0.3284617147425632  0.5000000000000000
  0.5508111842508260  0.3665289691799109  0.6174337609853709
  0.4206373082637013  0.5624556171045135  0.5000000000000000
  0.4504678189643551  0.4487897201806035  0.5708973261681090
  0.5495321810356448  0.5512102798193964  0.4291026738318910
  0.5793626917362986  0.4375443828954865  0.5000000000000000
 
  0.00000000E+00  0.00000000E+00  0.00000000E+00
  0.00000000E+00  0.00000000E+00  0.00000000E+00
  0.00000000E+00  0.00000000E+00  0.00000000E+00
  0.00000000E+00  0.00000000E+00  0.00000000E+00
  0.00000000E+00  0.00000000E+00  0.00000000E+00
  0.00000000E+00  0.00000000E+00  0.00000000E+00
  0.00000000E+00  0.00000000E+00  0.00000000E+00
  0.00000000E+00  0.00000000E+00  0.00000000E+00
  0.00000000E+00  0.00000000E+00  0.00000000E+00
  0.00000000E+00  0.00000000E+00  0.00000000E+00
  0.00000000E+00  0.00000000E+00  0.00000000E+00
  0.00000000E+00  0.00000000E+00  0.00000000E+00
