Al12, -33.30527091 <s> Ag </s>          
   1.00000000000000     
    19.6159545500138890    0.0000000000000000    0.0000000000000000
     0.0000000000000000   19.6159545500138890    0.0000000000000000
     0.0000000000000000    0.0000000000000000   19.6159545500138890
   Ag
    12
Direct
  0.5727305845051170  0.5836052371306235  0.4841453550576511
  0.5785868943247442  0.3694284783015565  0.6170610682102180
  0.5009398410948390  0.5928130220303026  0.6110090693309278
  0.5685102021734117  0.4351280888567161  0.4769400693224684
  0.4990870776102737  0.6986133738547237  0.5206095475904506
  0.4718966367551975  0.4565424941614289  0.5857697439545687
  0.4245181954238318  0.4265966441662640  0.4548731501404324
  0.5040647156827701  0.5160610703178296  0.3791052498443143
  0.4919945123041941  0.3223645389335232  0.5169579389458652
  0.4729137569164175  0.6508490277083793  0.3909876075127297
  0.6102328045441721  0.5030817060343793  0.5946573385423900
  0.4269365371844719  0.5638021185207802  0.4930300226795799
 
  0.00000000E+00  0.00000000E+00  0.00000000E+00
  0.00000000E+00  0.00000000E+00  0.00000000E+00
  0.00000000E+00  0.00000000E+00  0.00000000E+00
  0.00000000E+00  0.00000000E+00  0.00000000E+00
  0.00000000E+00  0.00000000E+00  0.00000000E+00
  0.00000000E+00  0.00000000E+00  0.00000000E+00
  0.00000000E+00  0.00000000E+00  0.00000000E+00
  0.00000000E+00  0.00000000E+00  0.00000000E+00
  0.00000000E+00  0.00000000E+00  0.00000000E+00
  0.00000000E+00  0.00000000E+00  0.00000000E+00
  0.00000000E+00  0.00000000E+00  0.00000000E+00
  0.00000000E+00  0.00000000E+00  0.00000000E+00
