LCHARG=.FALSE.
LVTOT=.FALSE.
LWAVE=.FALSE.
IBRION= 2
NSW= 1000
POTIM=0.1
ISIF= 2
ISPIN = 2
ISMEAR=0
SIGMA=0.0001
GGA = PE
NPAR=4
LPLANE=.TRUE.
EDIFF=0.00005
EDIFFG=0.0005
