Al12, -32.80840456 <s> Ag </s>          
   1.00000000000000     
    20.4420728377286913    0.0000000000000000    0.0000000000000000
     0.0000000000000000   20.4420728377286913    0.0000000000000000
     0.0000000000000000    0.0000000000000000   20.4420728377286913
   Ag
    12
Direct
  0.3839291870529148  0.4697244219164557  0.4051676632333178
  0.3534461159283038  0.5536335835096935  0.5053871258590779
  0.4647946539737850  0.5810831217026715  0.4308335692214728
  0.5193270274373893  0.4554038602153341  0.4260143974934771
  0.3730521803939764  0.5134846025383638  0.6298834085663499
  0.4339329223309407  0.4411768828107299  0.5301091435058337
  0.5892557820490418  0.5673519955984413  0.4832938057745682
  0.5702167378951848  0.4509203377354354  0.5524600616336913
  0.6541300080778434  0.4597649099302912  0.4307918363890057
  0.4808833783760224  0.5650225750572940  0.5671660522379592
  0.6051297928189493  0.5628436544096170  0.6226208320752500
  0.6995065825986339  0.5074841317769125  0.5468817209062687
 
  0.00000000E+00  0.00000000E+00  0.00000000E+00
  0.00000000E+00  0.00000000E+00  0.00000000E+00
  0.00000000E+00  0.00000000E+00  0.00000000E+00
  0.00000000E+00  0.00000000E+00  0.00000000E+00
  0.00000000E+00  0.00000000E+00  0.00000000E+00
  0.00000000E+00  0.00000000E+00  0.00000000E+00
  0.00000000E+00  0.00000000E+00  0.00000000E+00
  0.00000000E+00  0.00000000E+00  0.00000000E+00
  0.00000000E+00  0.00000000E+00  0.00000000E+00
  0.00000000E+00  0.00000000E+00  0.00000000E+00
  0.00000000E+00  0.00000000E+00  0.00000000E+00
  0.00000000E+00  0.00000000E+00  0.00000000E+00
