Ni13, -989.0 <s> Ni </s>                
   1.00000000000000     
    17.5736400000000010    0.0000000000000000    0.0000000000000000
     0.0000000000000000   17.5736400000000010    0.0000000000000000
     0.0000000000000000    0.0000000000000000   17.5736400000000010
   Ni
    13
Direct
  0.5027926103471528  0.4340195501231141  0.6177729889578035
  0.4935736880995924  0.3701198565782108  0.4939682144069364
  0.4388797894095154  0.5552444879594625  0.6012287594447758
  0.4215736423887985  0.4483005909726375  0.4033203161910023
  0.3895822184517148  0.5638597835054466  0.4715482467036050
  0.6099066136505409  0.4363416138290745  0.5282547680460217
  0.5610124277749137  0.4446193079123325  0.3990229413944805
  0.5768230557287884  0.5510446090310647  0.5947552023622190
  0.4972533805383987  0.5648737685367711  0.3848601315023861
  0.5064329862813310  0.6305889529853973  0.5060098410854218
  0.6146865577645643  0.5580650887432671  0.4601222732406248
  0.3873411327925261  0.4432327172891227  0.5391514362046358
  0.5001418967721774  0.4996896725341125  0.4999848804600871
 
  0.00000000E+00  0.00000000E+00  0.00000000E+00
  0.00000000E+00  0.00000000E+00  0.00000000E+00
  0.00000000E+00  0.00000000E+00  0.00000000E+00
  0.00000000E+00  0.00000000E+00  0.00000000E+00
  0.00000000E+00  0.00000000E+00  0.00000000E+00
  0.00000000E+00  0.00000000E+00  0.00000000E+00
  0.00000000E+00  0.00000000E+00  0.00000000E+00
  0.00000000E+00  0.00000000E+00  0.00000000E+00
  0.00000000E+00  0.00000000E+00  0.00000000E+00
  0.00000000E+00  0.00000000E+00  0.00000000E+00
  0.00000000E+00  0.00000000E+00  0.00000000E+00
  0.00000000E+00  0.00000000E+00  0.00000000E+00
  0.00000000E+00  0.00000000E+00  0.00000000E+00
