Ni13, -989.0 <s> Ni </s>                
   1.00000000000000     
    17.5736400000000010    0.0000000000000000    0.0000000000000000
     0.0000000000000000   17.5736400000000010    0.0000000000000000
     0.0000000000000000    0.0000000000000000   17.5736400000000010
   Ni
    13
Direct
  0.5019512528822557  0.4203865667712609  0.6462637638498823
  0.4904164560853488  0.3402999231065136  0.4923907083412477
  0.4251640092916740  0.5667293204407775  0.6255287264372382
  0.4004354915387566  0.4376333148526549  0.3800882061764294
  0.3641079776332669  0.5772197584808710  0.4646608790390198
  0.6359207777187245  0.4228208493824814  0.5354645442524467
  0.5748249711223349  0.4332080228151470  0.3744599847160401
  0.5995220645066138  0.5624813420785989  0.6198955890180710
  0.4980706681587022  0.5796025086859458  0.3537470934156610
  0.5096140483867799  0.6596811561526890  0.5075048261551465
  0.6423203039275481  0.5745148615805514  0.4512704676395753
  0.3577091434365284  0.4253614278222779  0.5487155267735283
  0.4999428353114736  0.5000609478302450  0.5000096841857062
 
  0.00000000E+00  0.00000000E+00  0.00000000E+00
  0.00000000E+00  0.00000000E+00  0.00000000E+00
  0.00000000E+00  0.00000000E+00  0.00000000E+00
  0.00000000E+00  0.00000000E+00  0.00000000E+00
  0.00000000E+00  0.00000000E+00  0.00000000E+00
  0.00000000E+00  0.00000000E+00  0.00000000E+00
  0.00000000E+00  0.00000000E+00  0.00000000E+00
  0.00000000E+00  0.00000000E+00  0.00000000E+00
  0.00000000E+00  0.00000000E+00  0.00000000E+00
  0.00000000E+00  0.00000000E+00  0.00000000E+00
  0.00000000E+00  0.00000000E+00  0.00000000E+00
  0.00000000E+00  0.00000000E+00  0.00000000E+00
  0.00000000E+00  0.00000000E+00  0.00000000E+00
