Be10, -22.13324227 <s> Ni </s>          
   1.00000000000000     
    16.2868123716155111    0.0000000000000000    0.0000000000000000
     0.0000000000000000   16.2868123716155111    0.0000000000000000
     0.0000000000000000    0.0000000000000000   16.2868123716155111
   Ni
    10
Direct
  0.6703423642638691  0.5781686419669211  0.4391657599775840
  0.6026562443135187  0.6562710424243120  0.5515671872503475
  0.5310864013295430  0.4430281108937690  0.5924239700150303
  0.4673144581502717  0.6142572653949935  0.5700297284049398
  0.5533436721295936  0.5678268285964614  0.6675064753917979
  0.6433524698969576  0.5250570007379074  0.5661439326529069
  0.4172014138334162  0.5068243160194257  0.6463890946173310
  0.5299132579067218  0.5897908529516840  0.4442587832919305
  0.5794669611556302  0.4605643489870039  0.4564720176781825
  0.4395276617368737  0.4924164967439386  0.5002479554363447
 
  0.00000000E+00  0.00000000E+00  0.00000000E+00
  0.00000000E+00  0.00000000E+00  0.00000000E+00
  0.00000000E+00  0.00000000E+00  0.00000000E+00
  0.00000000E+00  0.00000000E+00  0.00000000E+00
  0.00000000E+00  0.00000000E+00  0.00000000E+00
  0.00000000E+00  0.00000000E+00  0.00000000E+00
  0.00000000E+00  0.00000000E+00  0.00000000E+00
  0.00000000E+00  0.00000000E+00  0.00000000E+00
  0.00000000E+00  0.00000000E+00  0.00000000E+00
  0.00000000E+00  0.00000000E+00  0.00000000E+00
