Be10, -22.13324227 <s> Ni </s>          
   1.00000000000000     
    16.2868123716155111    0.0000000000000000    0.0000000000000000
     0.0000000000000000   16.2868123716155111    0.0000000000000000
     0.0000000000000000    0.0000000000000000   16.2868123716155111
   Ni
    10
Direct
  0.6963911076547552  0.5804244308682490  0.4159368909946654
  0.6190023221764149  0.6882375079248001  0.5598294263668756
  0.5282588439608288  0.4313816109507901  0.5963610702635453
  0.4533873587243202  0.6242688569026041  0.5752502052822875
  0.5534737147145510  0.5782574766881419  0.7064750285212367
  0.6610891541124805  0.5257955508460247  0.5708015749932269
  0.3946484459592205  0.4993520005118500  0.6727593317619910
  0.5290527542559162  0.5969833847695264  0.4293335105313095
  0.5893461717984233  0.4362075830792250  0.4256582710168615
  0.4095550313594919  0.4732965021752004  0.4817995949843955
 
  0.00000000E+00  0.00000000E+00  0.00000000E+00
  0.00000000E+00  0.00000000E+00  0.00000000E+00
  0.00000000E+00  0.00000000E+00  0.00000000E+00
  0.00000000E+00  0.00000000E+00  0.00000000E+00
  0.00000000E+00  0.00000000E+00  0.00000000E+00
  0.00000000E+00  0.00000000E+00  0.00000000E+00
  0.00000000E+00  0.00000000E+00  0.00000000E+00
  0.00000000E+00  0.00000000E+00  0.00000000E+00
  0.00000000E+00  0.00000000E+00  0.00000000E+00
  0.00000000E+00  0.00000000E+00  0.00000000E+00
