Co13, -947.0 <s> Pd </s>                
   1.00000000000000     
    17.7841270000000016    0.0000000000000000    0.0000000000000000
     0.0000000000000000   17.7841270000000016    0.0000000000000000
     0.0000000000000000    0.0000000000000000   17.7841270000000016
   Pd
    13
Direct
  0.4570322866132087  0.6508943394360104  0.5362379840641163
  0.4570319083300759  0.3491060932435530  0.5362380471113051
  0.4541664560433105  0.5000003739577465  0.5369931331909525
  0.5826857247551842  0.4220612656694166  0.4894473385248838
  0.5826859138967435  0.5779386626326436  0.4894469602417509
  0.3707833229518016  0.4224704094984713  0.4375905401834895
  0.3707836381877527  0.5775300862282878  0.4375909184666223
  0.5411826665267153  0.4251379204278590  0.6348968781190116
  0.5411829187154705  0.5748607469304319  0.6348965628830747
  0.4934034523825966  0.5000004370049425  0.3908061258316947
  0.4940100643784702  0.6475198040875964  0.3940926183331682
  0.4940098752369038  0.3524808177335262  0.3940922400500354
  0.6610417651644926  0.4999990499668030  0.5876706666344359
 
  0.00000000E+00  0.00000000E+00  0.00000000E+00
  0.00000000E+00  0.00000000E+00  0.00000000E+00
  0.00000000E+00  0.00000000E+00  0.00000000E+00
  0.00000000E+00  0.00000000E+00  0.00000000E+00
  0.00000000E+00  0.00000000E+00  0.00000000E+00
  0.00000000E+00  0.00000000E+00  0.00000000E+00
  0.00000000E+00  0.00000000E+00  0.00000000E+00
  0.00000000E+00  0.00000000E+00  0.00000000E+00
  0.00000000E+00  0.00000000E+00  0.00000000E+00
  0.00000000E+00  0.00000000E+00  0.00000000E+00
  0.00000000E+00  0.00000000E+00  0.00000000E+00
  0.00000000E+00  0.00000000E+00  0.00000000E+00
  0.00000000E+00  0.00000000E+00  0.00000000E+00
