Al13, -36.07954781 <s> Ag </s>          
   1.00000000000000     
    19.7334270089465704    0.0000000000000000    0.0000000000000000
     0.0000000000000000   19.7334270089465704    0.0000000000000000
     0.0000000000000000    0.0000000000000000   19.7334270089465704
   Ag
    13
Direct
  0.5457810220594719  0.3943906065199285  0.6150219916841988
  0.4336467136394766  0.3877829880413989  0.5337238079533221
  0.6562827458581243  0.4358626112657977  0.5395700492146815
  0.4349731266836260  0.4929273910023054  0.6333229450148252
  0.5586342436873366  0.3676447628851435  0.4695779309185102
  0.3826760135893374  0.5222256966400153  0.5031932312788782
  0.5316206248419156  0.5116069699064258  0.5355552625103858
  0.6066736302045767  0.4987613276477502  0.4202175954070007
  0.4382953264166057  0.6261816954382067  0.5748545929478793
  0.4666495065706044  0.4564206381155411  0.4107438484149253
  0.6053303025933303  0.6277359680016642  0.4734569631859843
  0.4765533869656605  0.5987481692149520  0.4344389273159378
  0.5031149516814427  0.7210080617505137  0.4978021934926704
 
  0.00000000E+00  0.00000000E+00  0.00000000E+00
  0.00000000E+00  0.00000000E+00  0.00000000E+00
  0.00000000E+00  0.00000000E+00  0.00000000E+00
  0.00000000E+00  0.00000000E+00  0.00000000E+00
  0.00000000E+00  0.00000000E+00  0.00000000E+00
  0.00000000E+00  0.00000000E+00  0.00000000E+00
  0.00000000E+00  0.00000000E+00  0.00000000E+00
  0.00000000E+00  0.00000000E+00  0.00000000E+00
  0.00000000E+00  0.00000000E+00  0.00000000E+00
  0.00000000E+00  0.00000000E+00  0.00000000E+00
  0.00000000E+00  0.00000000E+00  0.00000000E+00
  0.00000000E+00  0.00000000E+00  0.00000000E+00
  0.00000000E+00  0.00000000E+00  0.00000000E+00
