Ti12, -71.64213332 <s> Ni </s>          
   1.00000000000000     
    18.7330833914452413    0.0000000000000000    0.0000000000000000
     0.0000000000000000   18.7330833914452413    0.0000000000000000
     0.0000000000000000    0.0000000000000000   18.7330833914452413
   Ni
    12
Direct
  0.3901505797815312  0.3792461288439596  0.3673837529197571
  0.3320953455177280  0.4685532541198648  0.4357881538857101
  0.5119238478321734  0.4122359926933732  0.3558547738802357
  0.3797885021305322  0.4716842115747423  0.5543831219429574
  0.5289956861943501  0.5216582016708478  0.4170381750299639
  0.5689897157940912  0.4124713878366263  0.4705960087945406
  0.5078661495852723  0.5059878099692801  0.5424060332184538
  0.4210883529013714  0.5030085036555895  0.3493661324358907
  0.3621701027979762  0.3565681846774094  0.4901269377452585
  0.4788989187498448  0.3197229818372229  0.4377672386202396
  0.4178029689650725  0.5564245288550612  0.4665212111242719
  0.4498419500363802  0.4356922648566250  0.4617519819128566
 
  0.00000000E+00  0.00000000E+00  0.00000000E+00
  0.00000000E+00  0.00000000E+00  0.00000000E+00
  0.00000000E+00  0.00000000E+00  0.00000000E+00
  0.00000000E+00  0.00000000E+00  0.00000000E+00
  0.00000000E+00  0.00000000E+00  0.00000000E+00
  0.00000000E+00  0.00000000E+00  0.00000000E+00
  0.00000000E+00  0.00000000E+00  0.00000000E+00
  0.00000000E+00  0.00000000E+00  0.00000000E+00
  0.00000000E+00  0.00000000E+00  0.00000000E+00
  0.00000000E+00  0.00000000E+00  0.00000000E+00
  0.00000000E+00  0.00000000E+00  0.00000000E+00
  0.00000000E+00  0.00000000E+00  0.00000000E+00
