Pt10, -43.0824499 <s> Pd </s>           
   1.00000000000000     
    17.8026097503435814    0.0000000000000000    0.0000000000000000
     0.0000000000000000   17.8026097503435814    0.0000000000000000
     0.0000000000000000    0.0000000000000000   17.8026097503435814
   Pd
    10
Direct
  0.5866889064599521  0.3825820966026994  0.4050308619001655
  0.5731530852951421  0.6444716727794803  0.4493129508576912
  0.5118137256571029  0.5674534486445120  0.5569530333667456
  0.5235673118545119  0.5133432187043181  0.4107690639997832
  0.5695141698323697  0.4732899303438620  0.6521011414044271
  0.5173765566496163  0.4133494393083971  0.5297069025993904
  0.4307176106180509  0.6260487098375468  0.4450630885311557
  0.4273790535782443  0.4712702304609283  0.6331964406571851
  0.4435246480275966  0.3877667335533372  0.4026521892430259
  0.3893859809273184  0.4946979652609499  0.4905860291018038
 
  0.00000000E+00  0.00000000E+00  0.00000000E+00
  0.00000000E+00  0.00000000E+00  0.00000000E+00
  0.00000000E+00  0.00000000E+00  0.00000000E+00
  0.00000000E+00  0.00000000E+00  0.00000000E+00
  0.00000000E+00  0.00000000E+00  0.00000000E+00
  0.00000000E+00  0.00000000E+00  0.00000000E+00
  0.00000000E+00  0.00000000E+00  0.00000000E+00
  0.00000000E+00  0.00000000E+00  0.00000000E+00
  0.00000000E+00  0.00000000E+00  0.00000000E+00
  0.00000000E+00  0.00000000E+00  0.00000000E+00
