Tl10, -17.38186479 <s> Pd </s>          
   1.00000000000000     
    19.8110353792785610    0.0000000000000000    0.0000000000000000
     0.0000000000000000   19.8110353792785610    0.0000000000000000
     0.0000000000000000    0.0000000000000000   19.8110353792785610
   Pd
    10
Direct
  0.5366565289381582  0.3658990716260586  0.4435104642976709
  0.4241788583992050  0.3341015545106071  0.5084646270241174
  0.4211514115854995  0.3570684518206925  0.3765588241562567
  0.5125465035118726  0.4591096215574988  0.3552883808252875
  0.3744355657555753  0.4336128659396185  0.5754213830870442
  0.3229757686401769  0.4119985590687952  0.4575845215915984
  0.4516506835547178  0.4655945019783393  0.4747061054053849
  0.4204130700354426  0.4246532334868646  0.2623045153445061
  0.3047744755996539  0.3964836304408215  0.3264169347671337
  0.3794245620438739  0.4960924191945252  0.3655889396658577
 
  0.00000000E+00  0.00000000E+00  0.00000000E+00
  0.00000000E+00  0.00000000E+00  0.00000000E+00
  0.00000000E+00  0.00000000E+00  0.00000000E+00
  0.00000000E+00  0.00000000E+00  0.00000000E+00
  0.00000000E+00  0.00000000E+00  0.00000000E+00
  0.00000000E+00  0.00000000E+00  0.00000000E+00
  0.00000000E+00  0.00000000E+00  0.00000000E+00
  0.00000000E+00  0.00000000E+00  0.00000000E+00
  0.00000000E+00  0.00000000E+00  0.00000000E+00
  0.00000000E+00  0.00000000E+00  0.00000000E+00
