Al35, -109.60798825 <s> Ag </s>         
   1.00000000000000     
    22.4412195123333085    0.0000000000000000    0.0000000000000000
     0.0000000000000000   22.4412195123333085    0.0000000000000000
     0.0000000000000000    0.0000000000000000   22.4412195123333085
   Ag
    35
Direct
  0.6756344071013207  0.4215720544894451  0.6113048680653828
  0.6255647888011158  0.5274972012948915  0.6428287232343458
  0.5365900737947409  0.6121994059384260  0.6588710673603327
  0.6982272649175724  0.5199126990371161  0.5331994338191941
  0.7426599502287435  0.4023331466898763  0.5115636495299812
  0.6106077460630305  0.6108370358670111  0.5515409700558191
  0.4180895402754269  0.6552892569511909  0.6227072794983343
  0.5638302907330192  0.3778409953156819  0.6263612298807144
  0.5072398542574734  0.4863577034988489  0.6466958307861799
  0.5216072901692754  0.6970979323787221  0.5677850642040192
  0.4339740016978104  0.5640574282488473  0.7093255754910104
  0.6249037142056724  0.3567873890955290  0.5158429892156354
  0.4389815846797664  0.3822942503565307  0.6248753485223040
  0.5772273123638529  0.4835691480843518  0.5317189297324575
  0.4821048718571969  0.5721735367875850  0.5513386361861728
  0.6591567574371645  0.4469653645091248  0.4334100596429399
  0.6347418333718026  0.5683405727473910  0.4340248129771794
  0.5086294494380827  0.5363750693681452  0.4351471568275675
  0.3823018586853882  0.4926528394815243  0.6164020569436764
  0.4554269076386400  0.4494110754187834  0.5202376285893903
  0.5652404249626530  0.6064317960836012  0.3375158203590546
  0.5819309970830698  0.4851051051756972  0.3433470640154793
  0.5418264569210924  0.4045246721594694  0.4324502837224915
  0.4427164229583356  0.3348255323833850  0.4198279751401802
  0.5022621901362335  0.3319804601630473  0.5285196031846086
  0.3211474323599342  0.5870967710487260  0.6666515507329897
  0.5495377221876274  0.6597915358042066  0.4526981658987617
  0.4881425128959158  0.4043171196861404  0.3202964342977451
  0.3460174040656745  0.5887006453629693  0.5443115684448415
  0.4252820002597604  0.6687043537261407  0.4909560581736380
  0.4538145893809806  0.6460029083967516  0.3718914226244360
  0.3795021165967232  0.5660055258406003  0.4262557420076602
  0.4611881988547073  0.5308309232896444  0.3205189338064606
  0.3350111267571090  0.4738042266155909  0.5001482219284586
  0.4081647131418895  0.4503923468571391  0.4015326611706777
 
  0.00000000E+00  0.00000000E+00  0.00000000E+00
  0.00000000E+00  0.00000000E+00  0.00000000E+00
  0.00000000E+00  0.00000000E+00  0.00000000E+00
  0.00000000E+00  0.00000000E+00  0.00000000E+00
  0.00000000E+00  0.00000000E+00  0.00000000E+00
  0.00000000E+00  0.00000000E+00  0.00000000E+00
  0.00000000E+00  0.00000000E+00  0.00000000E+00
  0.00000000E+00  0.00000000E+00  0.00000000E+00
  0.00000000E+00  0.00000000E+00  0.00000000E+00
  0.00000000E+00  0.00000000E+00  0.00000000E+00
  0.00000000E+00  0.00000000E+00  0.00000000E+00
  0.00000000E+00  0.00000000E+00  0.00000000E+00
  0.00000000E+00  0.00000000E+00  0.00000000E+00
  0.00000000E+00  0.00000000E+00  0.00000000E+00
  0.00000000E+00  0.00000000E+00  0.00000000E+00
  0.00000000E+00  0.00000000E+00  0.00000000E+00
  0.00000000E+00  0.00000000E+00  0.00000000E+00
  0.00000000E+00  0.00000000E+00  0.00000000E+00
  0.00000000E+00  0.00000000E+00  0.00000000E+00
  0.00000000E+00  0.00000000E+00  0.00000000E+00
  0.00000000E+00  0.00000000E+00  0.00000000E+00
  0.00000000E+00  0.00000000E+00  0.00000000E+00
  0.00000000E+00  0.00000000E+00  0.00000000E+00
  0.00000000E+00  0.00000000E+00  0.00000000E+00
  0.00000000E+00  0.00000000E+00  0.00000000E+00
  0.00000000E+00  0.00000000E+00  0.00000000E+00
  0.00000000E+00  0.00000000E+00  0.00000000E+00
  0.00000000E+00  0.00000000E+00  0.00000000E+00
  0.00000000E+00  0.00000000E+00  0.00000000E+00
  0.00000000E+00  0.00000000E+00  0.00000000E+00
  0.00000000E+00  0.00000000E+00  0.00000000E+00
  0.00000000E+00  0.00000000E+00  0.00000000E+00
  0.00000000E+00  0.00000000E+00  0.00000000E+00
  0.00000000E+00  0.00000000E+00  0.00000000E+00
  0.00000000E+00  0.00000000E+00  0.00000000E+00
