Cu12 https://doi.org/10.1039/C7CP02240A <s> Cu </s>
  1.00000000000000
    17.83819000000000     0.00000000000000     0.00000000000000
     0.00000000000000    17.83819000000000     0.00000000000000
     0.00000000000000     0.00000000000000    17.83819000000000
  Cu    
  12    
Cartesian
    -0.64680100000000     -0.27934900000000     -1.97543400000000   
     0.68237800000000     -0.95635400000000     -0.00394300000000   
    -0.62410600000000     -0.27966200000000      1.98270600000000   
    -2.89806000000000      0.47105400000000     -1.25218900000000   
     1.87269500000000     -0.89098200000000     -2.07426800000000   
    -2.88361900000000      0.47080300000000      1.28526200000000   
     1.18610000000000      1.21622200000000      1.19345400000000   
    -1.74160400000000     -1.17778600000000      0.00991100000000   
     1.89653800000000     -0.89129000000000      2.05252400000000   
     1.17234500000000      1.21643800000000     -1.20672600000000   
     2.94013000000000     -0.09300500000000     -0.01689800000000   
    -0.95599600000000      1.19391000000000      0.00559700000000   
