Al8, -20.47377306 <s> Ag </s>           
   1.00000000000000     
    17.7060655579128294    0.0000000000000000    0.0000000000000000
     0.0000000000000000   17.7060655579128294    0.0000000000000000
     0.0000000000000000    0.0000000000000000   17.7060655579128294
   Ag
     8
Direct
  0.5445980802314082  0.3997813013842009  0.5124372485769303
  0.3924567319416640  0.3921618582355810  0.5126273821268555
  0.5871261219171464  0.5135685929811349  0.4192066376635212
  0.4346530469958269  0.5045205569919154  0.4178963669964202
  0.4777969148480477  0.6205507955238293  0.5080471139157926
  0.4328363639830526  0.5093205227794433  0.6022787938076134
  0.6302792862793692  0.6285901985495613  0.5102166731757821
  0.5856746528251447  0.5159276066116210  0.6027968704229930
 
  0.00000000E+00  0.00000000E+00  0.00000000E+00
  0.00000000E+00  0.00000000E+00  0.00000000E+00
  0.00000000E+00  0.00000000E+00  0.00000000E+00
  0.00000000E+00  0.00000000E+00  0.00000000E+00
  0.00000000E+00  0.00000000E+00  0.00000000E+00
  0.00000000E+00  0.00000000E+00  0.00000000E+00
  0.00000000E+00  0.00000000E+00  0.00000000E+00
  0.00000000E+00  0.00000000E+00  0.00000000E+00
