Ti12, -71.64591586 <s> Pd </s>          
   1.00000000000000     
    19.2664500671946612    0.0000000000000000    0.0000000000000000
     0.0000000000000000   19.2664500671946612    0.0000000000000000
     0.0000000000000000    0.0000000000000000   19.2664500671946612
   Pd
    12
Direct
  0.5804639832580706  0.6348591860701638  0.4438050532634515
  0.4647922443505887  0.6511422109897111  0.5070549904766818
  0.5387645946899322  0.5365265213492071  0.5347768830417617
  0.6150014128238638  0.5064857856731265  0.4143922006303769
  0.4747787232518271  0.5440074635517222  0.4202630305399861
  0.3939205572999997  0.5430703251748923  0.5442968185196568
  0.4665273295016887  0.4248909544636363  0.5736374328910018
  0.5839615352004314  0.4080856768658849  0.5041312443953293
  0.3315663230690719  0.4285052200854996  0.5735369110593693
  0.4003441970778848  0.4330438058602187  0.4571502292934860
  0.5172191509067495  0.4149411166496444  0.3871629675115655
  0.4782759754207685  0.3204830933427835  0.4819023159989803
 
  0.00000000E+00  0.00000000E+00  0.00000000E+00
  0.00000000E+00  0.00000000E+00  0.00000000E+00
  0.00000000E+00  0.00000000E+00  0.00000000E+00
  0.00000000E+00  0.00000000E+00  0.00000000E+00
  0.00000000E+00  0.00000000E+00  0.00000000E+00
  0.00000000E+00  0.00000000E+00  0.00000000E+00
  0.00000000E+00  0.00000000E+00  0.00000000E+00
  0.00000000E+00  0.00000000E+00  0.00000000E+00
  0.00000000E+00  0.00000000E+00  0.00000000E+00
  0.00000000E+00  0.00000000E+00  0.00000000E+00
  0.00000000E+00  0.00000000E+00  0.00000000E+00
  0.00000000E+00  0.00000000E+00  0.00000000E+00
