Pt15, -67.07827733 <s> Ag </s>
  1.00000000000000
    19.99562553184019     0.00000000000000     0.00000000000000
     0.00000000000000    19.99562553184019     0.00000000000000
     0.00000000000000     0.00000000000000    19.99562553184019
  Ag    
  15    
Direct
     0.59002998985614      0.58353532148005      0.69257132019580   
     0.57290223410616      0.47459075050565      0.62709621787720   
     0.57676535679765      0.33933426284264      0.61223643904382   
     0.59221135438825      0.55327604363560      0.51361154825236   
     0.60515579664579      0.41320806991346      0.50488485571201   
     0.54306901774693      0.64936566978738      0.59174726800284   
     0.46772014877829      0.40203800482492      0.56750210686214   
     0.59996250490622      0.49026574657794      0.39103080153706   
     0.49049887363935      0.40203982855631      0.43490333474172   
     0.46529644139945      0.54334991715526      0.57194881289905   
     0.56409363567470      0.62472104931955      0.40702320570525   
     0.48932267632965      0.70489702294316      0.48337367462735   
     0.47190698149977      0.53272310409927      0.41750432919641   
     0.37535688211105      0.47274326698052      0.49472430631785   
     0.39336998128361      0.61188215642198      0.48620948446648   
