Y10, -628.0 <s> Pd </s>                 
   1.00000000000000     
    20.3585479999999990    0.0000000000000000    0.0000000000000000
     0.0000000000000000   20.3585479999999990    0.0000000000000000
     0.0000000000000000    0.0000000000000000   20.3585479999999990
   Pd
    10
Direct
  0.5868082601586632  0.5234089020861353  0.5648839426712970
  0.5430472836147234  0.5933052071708663  0.4631112674523848
  0.5195227660978766  0.4698170821067298  0.4329015140121061
  0.4648422750917278  0.5789220123745008  0.5653612110639235
  0.4769547963914673  0.4501657994682892  0.5545315397219658
  0.3587589185146054  0.5003311977348160  0.5523808532973339
  0.4159428558942779  0.5515882808416414  0.4474136623149772
  0.3989076483704636  0.4240863348448169  0.4539839865328063
  0.6418653806217902  0.5045033816534567  0.4489988834315173
  0.5933498152444044  0.4038718017187473  0.5164331395017021
 
  0.00000000E+00  0.00000000E+00  0.00000000E+00
  0.00000000E+00  0.00000000E+00  0.00000000E+00
  0.00000000E+00  0.00000000E+00  0.00000000E+00
  0.00000000E+00  0.00000000E+00  0.00000000E+00
  0.00000000E+00  0.00000000E+00  0.00000000E+00
  0.00000000E+00  0.00000000E+00  0.00000000E+00
  0.00000000E+00  0.00000000E+00  0.00000000E+00
  0.00000000E+00  0.00000000E+00  0.00000000E+00
  0.00000000E+00  0.00000000E+00  0.00000000E+00
  0.00000000E+00  0.00000000E+00  0.00000000E+00
