Ag14, -834.0 <s> Ag </s>                
   1.00000000000000     
    21.6481600000000007    0.0000000000000000    0.0000000000000000
     0.0000000000000000   21.6481600000000007    0.0000000000000000
     0.0000000000000000    0.0000000000000000   21.6481600000000007
   Ag
    14
Direct
  0.4292989320329241  0.5426068854104792  0.6036905061320494
  0.4023573249957229  0.5571345133010828  0.4737862710342437
  0.5000000000000000  0.6162691845743589  0.5260636972262076
  0.5000000000000000  0.3837308154256409  0.4739363027737923
  0.5000000000000000  0.4176110500975183  0.6045494047799346
  0.5976426750042773  0.4428654866989171  0.5262137289657565
  0.5707010679670759  0.4573931145895207  0.3963094938679506
  0.5000000000000000  0.5823889499024818  0.3954505952200655
  0.5707010679670759  0.5426068854104792  0.6036905061320494
  0.5976426750042773  0.5571345133010828  0.4737862710342437
  0.4023573249957229  0.4428654866989171  0.5262137289657565
  0.4292989320329241  0.4573931145895207  0.3963094938679506
  0.5000000000000000  0.5002802036740402  0.6986575227494639
  0.5000000000000000  0.4997197963259597  0.3013424772505361
 
  0.00000000E+00  0.00000000E+00  0.00000000E+00
  0.00000000E+00  0.00000000E+00  0.00000000E+00
  0.00000000E+00  0.00000000E+00  0.00000000E+00
  0.00000000E+00  0.00000000E+00  0.00000000E+00
  0.00000000E+00  0.00000000E+00  0.00000000E+00
  0.00000000E+00  0.00000000E+00  0.00000000E+00
  0.00000000E+00  0.00000000E+00  0.00000000E+00
  0.00000000E+00  0.00000000E+00  0.00000000E+00
  0.00000000E+00  0.00000000E+00  0.00000000E+00
  0.00000000E+00  0.00000000E+00  0.00000000E+00
  0.00000000E+00  0.00000000E+00  0.00000000E+00
  0.00000000E+00  0.00000000E+00  0.00000000E+00
  0.00000000E+00  0.00000000E+00  0.00000000E+00
  0.00000000E+00  0.00000000E+00  0.00000000E+00
