Pt11, -46.80152642 <s> Ag </s>          
   1.00000000000000     
    17.8819722978715703    0.0000000000000000    0.0000000000000000
     0.0000000000000000   17.8819722978715703    0.0000000000000000
     0.0000000000000000    0.0000000000000000   17.8819722978715703
   Ag
    11
Direct
  0.4049493207011996  0.4578349052123938  0.5878961750976515
  0.4115964097116549  0.6962957131031938  0.4477876758036488
  0.4738584801629214  0.6097115720752218  0.5675737000842739
  0.5484641361713003  0.4949970694716919  0.6434057303568427
  0.3814150403561858  0.5458870679909936  0.4623993857418391
  0.5281954777651534  0.3482394339512714  0.5989066728135983
  0.5157673492582915  0.4587270463984501  0.4859307105362550
  0.5267381335454133  0.6023609248917894  0.4157849476482094
  0.6245861493923128  0.5795406346905891  0.5410791999776163
  0.6560067255262112  0.4200836493132408  0.5487167257086196
  0.6418171041974181  0.4978954676068737  0.4099701613934466
 
  0.00000000E+00  0.00000000E+00  0.00000000E+00
  0.00000000E+00  0.00000000E+00  0.00000000E+00
  0.00000000E+00  0.00000000E+00  0.00000000E+00
  0.00000000E+00  0.00000000E+00  0.00000000E+00
  0.00000000E+00  0.00000000E+00  0.00000000E+00
  0.00000000E+00  0.00000000E+00  0.00000000E+00
  0.00000000E+00  0.00000000E+00  0.00000000E+00
  0.00000000E+00  0.00000000E+00  0.00000000E+00
  0.00000000E+00  0.00000000E+00  0.00000000E+00
  0.00000000E+00  0.00000000E+00  0.00000000E+00
  0.00000000E+00  0.00000000E+00  0.00000000E+00
