Pt11, -46.80152642 <s> Ag </s>          
   1.00000000000000     
    17.8819722978715703    0.0000000000000000    0.0000000000000000
     0.0000000000000000   17.8819722978715703    0.0000000000000000
     0.0000000000000000    0.0000000000000000   17.8819722978715703
   Ag
    11
Direct
  0.4048472539339242  0.4578111153955365  0.5878414572105777
  0.4116427549998540  0.6963132247300070  0.4476626119367882
  0.4738760407388221  0.6098383755735065  0.5677424729503200
  0.5484194134652832  0.4950952876256277  0.6434740608340995
  0.3814146619853305  0.5459070966190745  0.4624086939285969
  0.5283503154073529  0.3481329156334769  0.5988720672161649
  0.5155590339608935  0.4586005084013847  0.4859526579022069
  0.5266847814126321  0.6022801407380164  0.4157286104067795
  0.6246886290375970  0.5796902757540660  0.5411499539228241
  0.6560636185895208  0.4199474676667561  0.5486038216381982
  0.6418478232568525  0.4979570765682514  0.4100146772154450
 
  0.00000000E+00  0.00000000E+00  0.00000000E+00
  0.00000000E+00  0.00000000E+00  0.00000000E+00
  0.00000000E+00  0.00000000E+00  0.00000000E+00
  0.00000000E+00  0.00000000E+00  0.00000000E+00
  0.00000000E+00  0.00000000E+00  0.00000000E+00
  0.00000000E+00  0.00000000E+00  0.00000000E+00
  0.00000000E+00  0.00000000E+00  0.00000000E+00
  0.00000000E+00  0.00000000E+00  0.00000000E+00
  0.00000000E+00  0.00000000E+00  0.00000000E+00
  0.00000000E+00  0.00000000E+00  0.00000000E+00
  0.00000000E+00  0.00000000E+00  0.00000000E+00
