Ti50, -335.80309291 <s> Ag </s>         
   1.00000000000000     
    22.9725267743033612    0.0000000000000000    0.0000000000000000
     0.0000000000000000   22.9725267743033612    0.0000000000000000
     0.0000000000000000    0.0000000000000000   22.9725267743033612
   Ag
    50
Direct
  0.6871615000785526  0.3389046903841136  0.4579302767784110
  0.5716765745692713  0.3009259164378981  0.4943889865440300
  0.6478650436405444  0.3639350625418928  0.5742361682550182
  0.7175047088744724  0.4500317806433617  0.5093102459021085
  0.5907630698491839  0.3439947340940144  0.3791225083765438
  0.6746019628555233  0.4776647580048199  0.6226144971441144
  0.6854998582595194  0.4427358933409086  0.3892723969994488
  0.5321089544042342  0.3289342157350924  0.6091432381038966
  0.6001680998656324  0.4216679762507468  0.4708456640900346
  0.4527681643890115  0.2708327673468583  0.5310702276655835
  0.5617166448222672  0.4461695000599266  0.5896828609616895
  0.7357715713710585  0.5653123797485761  0.5574175729674903
  0.7067114680887167  0.5566475777512087  0.4344416077795596
  0.6249238695662014  0.5349367667927326  0.5217435740347386
  0.5016764263264627  0.4314841415927603  0.3895158792397808
  0.4031697518157112  0.3584833729377119  0.6046900596103394
  0.4748906629533767  0.3126666110249547  0.4118516406741755
  0.4832094890889472  0.4222842083616932  0.6795123886259251
  0.4820396832193233  0.3858877458601010  0.5104968922147632
  0.6391119422703130  0.6056905807340340  0.6253220268223276
  0.5904706184269630  0.5263471927724515  0.3941272941745448
  0.5732658079610413  0.5130914457285324  0.6906410499662872
  0.5125428340261989  0.5022813137279635  0.4891182458247836
  0.6594485930169228  0.6539548998344037  0.5113127333016063
  0.3647390831882460  0.3491377492790520  0.4873599994840027
  0.4356515065660855  0.4777002101875316  0.5815086447055493
  0.6320415198897916  0.6465452978090851  0.3933506596837740
  0.5367398646896481  0.6339715342668147  0.6905202845402959
  0.5239204049184638  0.5692384676952708  0.5905116308943776
  0.4469722293012437  0.5458134288551452  0.6888141210464656
  0.4642677443896216  0.5551951155087929  0.3904753299813375
  0.3628819509202169  0.4531438051176071  0.6745129196658392
  0.3853939430143904  0.3857755724139815  0.3724894456717999
  0.5549681947915688  0.6865638293796987  0.5790352654434354
  0.5414886653597035  0.6188539083724632  0.3193498838490423
  0.3995179160378504  0.4698379072773964  0.4591898251700706
  0.3205327912704053  0.4436003060638306  0.5561463363580985
  0.5415310117009580  0.6190432406328830  0.4716484464577332
  0.2882952206215200  0.4378340449177294  0.4337805069209265
  0.5715102936865732  0.7336446298190231  0.4643342574146151
  0.4341224879530627  0.6515148513881782  0.6209385115510643
  0.3458340317028430  0.5588144968405443  0.6104785260295765
  0.4246944179342696  0.5829546506525581  0.5144466769958064
  0.4103426207640519  0.6239046597594273  0.3107650917159882
  0.3416983561089435  0.5356525949641822  0.3708081934018544
  0.4786834700257562  0.6907874023615558  0.3905194372462814
  0.3072720301087225  0.5508646196606624  0.4890747666998204
  0.4527530657743494  0.7021219752104131  0.5078389309860151
  0.3370764566519244  0.6619571978446773  0.5424273804246125
  0.3692450229580475  0.6433577881995647  0.4242745009068012
 
  0.00000000E+00  0.00000000E+00  0.00000000E+00
  0.00000000E+00  0.00000000E+00  0.00000000E+00
  0.00000000E+00  0.00000000E+00  0.00000000E+00
  0.00000000E+00  0.00000000E+00  0.00000000E+00
  0.00000000E+00  0.00000000E+00  0.00000000E+00
  0.00000000E+00  0.00000000E+00  0.00000000E+00
  0.00000000E+00  0.00000000E+00  0.00000000E+00
  0.00000000E+00  0.00000000E+00  0.00000000E+00
  0.00000000E+00  0.00000000E+00  0.00000000E+00
  0.00000000E+00  0.00000000E+00  0.00000000E+00
  0.00000000E+00  0.00000000E+00  0.00000000E+00
  0.00000000E+00  0.00000000E+00  0.00000000E+00
  0.00000000E+00  0.00000000E+00  0.00000000E+00
  0.00000000E+00  0.00000000E+00  0.00000000E+00
  0.00000000E+00  0.00000000E+00  0.00000000E+00
  0.00000000E+00  0.00000000E+00  0.00000000E+00
  0.00000000E+00  0.00000000E+00  0.00000000E+00
  0.00000000E+00  0.00000000E+00  0.00000000E+00
  0.00000000E+00  0.00000000E+00  0.00000000E+00
  0.00000000E+00  0.00000000E+00  0.00000000E+00
  0.00000000E+00  0.00000000E+00  0.00000000E+00
  0.00000000E+00  0.00000000E+00  0.00000000E+00
  0.00000000E+00  0.00000000E+00  0.00000000E+00
  0.00000000E+00  0.00000000E+00  0.00000000E+00
  0.00000000E+00  0.00000000E+00  0.00000000E+00
  0.00000000E+00  0.00000000E+00  0.00000000E+00
  0.00000000E+00  0.00000000E+00  0.00000000E+00
  0.00000000E+00  0.00000000E+00  0.00000000E+00
  0.00000000E+00  0.00000000E+00  0.00000000E+00
  0.00000000E+00  0.00000000E+00  0.00000000E+00
  0.00000000E+00  0.00000000E+00  0.00000000E+00
  0.00000000E+00  0.00000000E+00  0.00000000E+00
  0.00000000E+00  0.00000000E+00  0.00000000E+00
  0.00000000E+00  0.00000000E+00  0.00000000E+00
  0.00000000E+00  0.00000000E+00  0.00000000E+00
  0.00000000E+00  0.00000000E+00  0.00000000E+00
  0.00000000E+00  0.00000000E+00  0.00000000E+00
  0.00000000E+00  0.00000000E+00  0.00000000E+00
  0.00000000E+00  0.00000000E+00  0.00000000E+00
  0.00000000E+00  0.00000000E+00  0.00000000E+00
  0.00000000E+00  0.00000000E+00  0.00000000E+00
  0.00000000E+00  0.00000000E+00  0.00000000E+00
  0.00000000E+00  0.00000000E+00  0.00000000E+00
  0.00000000E+00  0.00000000E+00  0.00000000E+00
  0.00000000E+00  0.00000000E+00  0.00000000E+00
  0.00000000E+00  0.00000000E+00  0.00000000E+00
  0.00000000E+00  0.00000000E+00  0.00000000E+00
  0.00000000E+00  0.00000000E+00  0.00000000E+00
  0.00000000E+00  0.00000000E+00  0.00000000E+00
  0.00000000E+00  0.00000000E+00  0.00000000E+00
