Al49, -156.01724836 <s> Ag </s>         
   1.00000000000000     
    23.7513846557906803    0.0000000000000000    0.0000000000000000
     0.0000000000000000   23.7513846557906803    0.0000000000000000
     0.0000000000000000    0.0000000000000000   23.7513846557906803
   Ag
    49
Direct
  0.6697600462123624  0.6563156336022752  0.4378693225187872
  0.6915281020413915  0.5522890873042180  0.4894596438623884
  0.6580551684759395  0.6397336178406368  0.5614223227136268
  0.6537012720314576  0.5312463419486804  0.6082089901304718
  0.6400383705563638  0.6215677686295626  0.6814661051779577
  0.6139666943074537  0.5120760566840096  0.7177774058436424
  0.5272072344138886  0.5951182240294153  0.7161393416038432
  0.4997302434183404  0.6025761996098066  0.4362611303170504
  0.5306459336766527  0.5133959431505533  0.8005707284163840
  0.6515303483867703  0.4479699092702595  0.5253371817676790
  0.6791008627038562  0.4630029603907728  0.4102265936159524
  0.6139605372886943  0.5584805482936644  0.3985210707910847
  0.5488056086203262  0.6363631351408294  0.6061755930217337
  0.5745724493951153  0.5509323554009077  0.5193311469542483
  0.6119329299613130  0.4238431982121194  0.6358209967390355
  0.4819223277127760  0.7205350068855534  0.4268843039364617
  0.4392104586865814  0.5950195932676076  0.6324170733749167
  0.5292069302750692  0.5141544678166813  0.6253773205511163
  0.5410573642859620  0.4181378840714679  0.7303802298457415
  0.4588336063642008  0.6602892710884377  0.5336787387069077
  0.5801133947127012  0.4505875248460435  0.3421975048105707
  0.5692060449555183  0.6639461565888488  0.3659412278623642
  0.5706485063022266  0.6789986586186276  0.4942746695588930
  0.4517939497686703  0.5003895088111348  0.7131453630480233
  0.5213199916614489  0.5528255090922065  0.3262202454634540
  0.6122852922975218  0.3399361169312897  0.5514377765737477
  0.5528793742191628  0.3237425211337336  0.6580985656690413
  0.4522680084236016  0.6488995621125878  0.3339714393973156
  0.4687136326084621  0.4059516211831233  0.6381859127314620
  0.5963216314626635  0.3854091285519438  0.4413307100839808
  0.5326359696702787  0.4342224379280605  0.5374975641510615
  0.3885867536830424  0.4909764411094514  0.6130066153216398
  0.4548174717173076  0.5318542087977223  0.5231339625324416
  0.5163200018471651  0.4849491872634819  0.4321339311785667
  0.3574799755998512  0.5978207593963946  0.5428548708794637
  0.4072942743052899  0.5369917318281587  0.4058452752778683
  0.4585454254633785  0.4483197306395986  0.3361564297365306
  0.3858364436839598  0.6512954426236799  0.4380025447906841
  0.4140858634140553  0.5438330290277529  0.2814384128533409
  0.5684349548056634  0.2362917819402795  0.5809027522793409
  0.3388678104130413  0.6147072287486552  0.3346883418025844
  0.5558815437610066  0.2762668644372275  0.4675390027364553
  0.4907187110128825  0.3207949190427413  0.5539781977658504
  0.4144034151338046  0.4065456672537082  0.5311101196223543
  0.4809222955488239  0.3673372234782799  0.4392739697525933
  0.3376715549913377  0.4891899548629523  0.5055133912776617
  0.2962605949408238  0.5725791268313580  0.4361734758505639
  0.3784460825591376  0.4220113456054141  0.4190539282571162
  0.3241599180561632  0.4926053769967283  0.3395069805650965
 
  0.00000000E+00  0.00000000E+00  0.00000000E+00
  0.00000000E+00  0.00000000E+00  0.00000000E+00
  0.00000000E+00  0.00000000E+00  0.00000000E+00
  0.00000000E+00  0.00000000E+00  0.00000000E+00
  0.00000000E+00  0.00000000E+00  0.00000000E+00
  0.00000000E+00  0.00000000E+00  0.00000000E+00
  0.00000000E+00  0.00000000E+00  0.00000000E+00
  0.00000000E+00  0.00000000E+00  0.00000000E+00
  0.00000000E+00  0.00000000E+00  0.00000000E+00
  0.00000000E+00  0.00000000E+00  0.00000000E+00
  0.00000000E+00  0.00000000E+00  0.00000000E+00
  0.00000000E+00  0.00000000E+00  0.00000000E+00
  0.00000000E+00  0.00000000E+00  0.00000000E+00
  0.00000000E+00  0.00000000E+00  0.00000000E+00
  0.00000000E+00  0.00000000E+00  0.00000000E+00
  0.00000000E+00  0.00000000E+00  0.00000000E+00
  0.00000000E+00  0.00000000E+00  0.00000000E+00
  0.00000000E+00  0.00000000E+00  0.00000000E+00
  0.00000000E+00  0.00000000E+00  0.00000000E+00
  0.00000000E+00  0.00000000E+00  0.00000000E+00
  0.00000000E+00  0.00000000E+00  0.00000000E+00
  0.00000000E+00  0.00000000E+00  0.00000000E+00
  0.00000000E+00  0.00000000E+00  0.00000000E+00
  0.00000000E+00  0.00000000E+00  0.00000000E+00
  0.00000000E+00  0.00000000E+00  0.00000000E+00
  0.00000000E+00  0.00000000E+00  0.00000000E+00
  0.00000000E+00  0.00000000E+00  0.00000000E+00
  0.00000000E+00  0.00000000E+00  0.00000000E+00
  0.00000000E+00  0.00000000E+00  0.00000000E+00
  0.00000000E+00  0.00000000E+00  0.00000000E+00
  0.00000000E+00  0.00000000E+00  0.00000000E+00
  0.00000000E+00  0.00000000E+00  0.00000000E+00
  0.00000000E+00  0.00000000E+00  0.00000000E+00
  0.00000000E+00  0.00000000E+00  0.00000000E+00
  0.00000000E+00  0.00000000E+00  0.00000000E+00
  0.00000000E+00  0.00000000E+00  0.00000000E+00
  0.00000000E+00  0.00000000E+00  0.00000000E+00
  0.00000000E+00  0.00000000E+00  0.00000000E+00
  0.00000000E+00  0.00000000E+00  0.00000000E+00
  0.00000000E+00  0.00000000E+00  0.00000000E+00
  0.00000000E+00  0.00000000E+00  0.00000000E+00
  0.00000000E+00  0.00000000E+00  0.00000000E+00
  0.00000000E+00  0.00000000E+00  0.00000000E+00
  0.00000000E+00  0.00000000E+00  0.00000000E+00
  0.00000000E+00  0.00000000E+00  0.00000000E+00
  0.00000000E+00  0.00000000E+00  0.00000000E+00
  0.00000000E+00  0.00000000E+00  0.00000000E+00
  0.00000000E+00  0.00000000E+00  0.00000000E+00
  0.00000000E+00  0.00000000E+00  0.00000000E+00
