Y10, -628.0 <s> Ni </s>                 
   1.00000000000000     
    20.3585479999999990    0.0000000000000000    0.0000000000000000
     0.0000000000000000   20.3585479999999990    0.0000000000000000
     0.0000000000000000    0.0000000000000000   20.3585479999999990
   Ni
    10
Direct
  0.5876801011666253  0.5226206768495970  0.5648275448703075
  0.5475500250655866  0.6115296368414496  0.4595909745689594
  0.5244709045002808  0.4788876118608314  0.4132519998207939
  0.4610591575273437  0.5957612122876733  0.5749920147207148
  0.4726846985767988  0.4537715027862070  0.5755053216386612
  0.3484509321526389  0.4978009446600594  0.5499293556522508
  0.4152108868372117  0.5493324767234837  0.4471638616723810
  0.4171577271407891  0.4005873274617063  0.4631510747292239
  0.6516086436964557  0.5020288312238824  0.4501236642586336
  0.5741269233362764  0.3876797793051091  0.5014641880680745
 
  0.00000000E+00  0.00000000E+00  0.00000000E+00
  0.00000000E+00  0.00000000E+00  0.00000000E+00
  0.00000000E+00  0.00000000E+00  0.00000000E+00
  0.00000000E+00  0.00000000E+00  0.00000000E+00
  0.00000000E+00  0.00000000E+00  0.00000000E+00
  0.00000000E+00  0.00000000E+00  0.00000000E+00
  0.00000000E+00  0.00000000E+00  0.00000000E+00
  0.00000000E+00  0.00000000E+00  0.00000000E+00
  0.00000000E+00  0.00000000E+00  0.00000000E+00
  0.00000000E+00  0.00000000E+00  0.00000000E+00
