Ti53, -356.6357174 <s> Ag </s>
  1.00000000000000
    23.95183077352524     0.00000000000000     0.00000000000000
     0.00000000000000    23.95183077352524     0.00000000000000
     0.00000000000000     0.00000000000000    23.95183077352524
  Ag    
  53    
Direct
     0.33997858829025      0.44416458039608      0.68902623997345   
     0.34570149257612      0.36207980331992      0.60508707977918   
     0.27741922115483      0.43929101385001      0.59028631952472   
     0.43842182820450      0.38313935274363      0.66279499975954   
     0.29176487269487      0.53467347206154      0.63059333825317   
     0.46192534400283      0.49492007824219      0.69155995626824   
     0.35055742940278      0.41827040734181      0.50212289905924   
     0.51221179418785      0.29654477190069      0.48906963627803   
     0.39078552184251      0.46497069384825      0.59983219941527   
     0.44349364538222      0.36291188192304      0.55079033406814   
     0.29504913571431      0.52425135170812      0.51609313352878   
     0.38264167514514      0.56605427994193      0.67699405601582   
     0.55136180132603      0.33684214571059      0.58169029939572   
     0.32159646005992      0.63005489771354      0.57516761861324   
     0.52554570966389      0.44127103871957      0.61725727864424   
     0.62680033404550      0.32154794309939      0.49552805821769   
     0.39265152364359      0.56084133263525      0.55450493498504   
     0.55454133489638      0.32188085625718      0.40150216663542   
     0.45725171786582      0.38837034952929      0.42656438796194   
     0.39838588422562      0.50567297716836      0.44543090704044   
     0.48864729801391      0.57153877538434      0.60623729576031   
     0.55765211335357      0.40091941674291      0.48375140015334   
     0.47609987303407      0.46869712816026      0.52029205802679   
     0.50565116400413      0.61508117167313      0.69881676714677   
     0.63163630291589      0.41143792586534      0.57886821392188   
     0.57667950216261      0.52493131327928      0.66356165970982   
     0.41202988390577      0.66157152132689      0.64267380387373   
     0.57321729685225      0.52776246949379      0.54546009769575   
     0.51678807230036      0.48582342629404      0.41318401262781   
     0.47961910823856      0.58537506346493      0.48881007021974   
     0.50878786762747      0.68694300218467      0.60903741763078   
     0.43867230588342      0.46335902110873      0.34111775455143   
     0.59490786238822      0.61972415778778      0.61603130558384   
     0.67918614133322      0.51092625908509      0.56670785956793   
     0.54392059677795      0.41078606471968      0.33710203777831   
     0.70731896645768      0.41315377594853      0.49696268412320   
     0.64729745857667      0.38478246088606      0.39543192631852   
     0.44402574518224      0.57533582529016      0.36676829081833   
     0.36794048937549      0.61434550616532      0.46213405992562   
     0.42422200413614      0.67735396577991      0.53478744306216   
     0.63645422062029      0.49159607562488      0.45837644245731   
     0.55931587913385      0.66403775411079      0.50961958624447   
     0.56983985947880      0.58186551948874      0.41287339562988   
     0.52473690434512      0.52857121772177      0.30104169099263   
     0.65338346970365      0.60005518461368      0.49784975160252   
     0.49228174819510      0.67331039369375      0.42319007849917   
     0.74244260337725      0.52367600226443      0.48220398596639   
     0.62939996316485      0.48755599594113      0.33385302863197   
     0.72283282368210      0.46247985870081      0.39413765239045   
     0.52307207594576      0.63963466882177      0.32473954869836   
     0.68901444289244      0.57200752485161      0.39234673913933   
     0.61040573212876      0.67430434459954      0.39451909261923   
     0.61832945405711      0.59491947769873      0.30943626971605   
