Al12, -33.0187095 <s> Ag </s>           
   1.00000000000000     
    18.6595535112592614    0.0000000000000000    0.0000000000000000
     0.0000000000000000   18.6595535112592614    0.0000000000000000
     0.0000000000000000    0.0000000000000000   18.6595535112592614
   Ag
    12
Direct
  0.4598352229143379  0.4629126059319070  0.4296700365706295
  0.5707735802251803  0.3715882145605111  0.4620789389741484
  0.3613490704590874  0.5735417178657992  0.4221549638248231
  0.5089600904876487  0.6054512713105384  0.4218454620858990
  0.4753963302842713  0.4121611327323660  0.5691962527405927
  0.5934231451777099  0.5090401330174905  0.5030168689695917
  0.3390842142378824  0.4501655617052247  0.5193392293737608
  0.6294061985341479  0.4046883535636441  0.6051939437357103
  0.6591973237625576  0.6329018658442341  0.4506249458507761
  0.4373313954206353  0.5585503322558303  0.5505958533162937
  0.5456238128529703  0.5201474561603303  0.6474222218425733
  0.5610393500053751  0.6410584278638881  0.5597391080224861
 
  0.00000000E+00  0.00000000E+00  0.00000000E+00
  0.00000000E+00  0.00000000E+00  0.00000000E+00
  0.00000000E+00  0.00000000E+00  0.00000000E+00
  0.00000000E+00  0.00000000E+00  0.00000000E+00
  0.00000000E+00  0.00000000E+00  0.00000000E+00
  0.00000000E+00  0.00000000E+00  0.00000000E+00
  0.00000000E+00  0.00000000E+00  0.00000000E+00
  0.00000000E+00  0.00000000E+00  0.00000000E+00
  0.00000000E+00  0.00000000E+00  0.00000000E+00
  0.00000000E+00  0.00000000E+00  0.00000000E+00
  0.00000000E+00  0.00000000E+00  0.00000000E+00
  0.00000000E+00  0.00000000E+00  0.00000000E+00
