Li12, -15.64418316 <s> Cu </s>          
   1.00000000000000     
    19.9701108854201799    0.0000000000000000    0.0000000000000000
     0.0000000000000000   19.9701108854201799    0.0000000000000000
     0.0000000000000000    0.0000000000000000   19.9701108854201799
   Cu
    12
Direct
  0.4724080278328749  0.4305889277618356  0.5412941314077341
  0.3942557956228807  0.3403649165670119  0.5221669822944626
  0.4017118939677972  0.4505693847414465  0.4484602577088423
  0.4788179448614036  0.3481964246978461  0.4433189344853318
  0.4030186500847547  0.2536668261674531  0.4388009386495992
  0.3584218332199811  0.4685827863231969  0.3386826841669970
  0.3659917701862170  0.5643715947456611  0.4163298144840167
  0.3679956212450329  0.3520466964651460  0.3817315979507716
  0.4659427778800264  0.4137019892680486  0.3411842510160640
  0.4629159348625789  0.5471376251883344  0.4920788927247047
  0.5280524398144925  0.4614648600247954  0.4365571535516057
  0.4646469157688981  0.5334875733961344  0.3635739669068009
 
  0.00000000E+00  0.00000000E+00  0.00000000E+00
  0.00000000E+00  0.00000000E+00  0.00000000E+00
  0.00000000E+00  0.00000000E+00  0.00000000E+00
  0.00000000E+00  0.00000000E+00  0.00000000E+00
  0.00000000E+00  0.00000000E+00  0.00000000E+00
  0.00000000E+00  0.00000000E+00  0.00000000E+00
  0.00000000E+00  0.00000000E+00  0.00000000E+00
  0.00000000E+00  0.00000000E+00  0.00000000E+00
  0.00000000E+00  0.00000000E+00  0.00000000E+00
  0.00000000E+00  0.00000000E+00  0.00000000E+00
  0.00000000E+00  0.00000000E+00  0.00000000E+00
  0.00000000E+00  0.00000000E+00  0.00000000E+00
