Li12, -15.64418316 <s> Cu </s>
  1.00000000000000
    19.97011088542018     0.00000000000000     0.00000000000000
     0.00000000000000    19.97011088542018     0.00000000000000
     0.00000000000000     0.00000000000000    19.97011088542018
  Cu    
  12    
Direct
     0.47782033187729      0.43184377193110      0.54082504571667   
     0.37288149210363      0.37599493874864      0.49900628463406   
     0.43420025100262      0.45051513231330      0.42828966712298   
     0.47351215450522      0.34203372208063      0.44796147032996   
     0.38148869433529      0.25483306238230      0.46404041989925   
     0.36234102632301      0.46783480762111      0.32881201062617   
     0.35001719160454      0.51117118938542      0.45369485547244   
     0.37108202706807      0.35247344089553      0.37959713767577   
     0.47191718464500      0.41851926946326      0.32756815232041   
     0.47069364328296      0.54723359177662      0.49243900746432   
     0.54303275503297      0.46611885900274      0.43584942727395   
     0.45519285356634      0.54560781974626      0.36609612681094   
