Al45, -142.16541599 <s> Ag </s>
  1.00000000000000
    23.71686603455308     0.00000000000000     0.00000000000000
     0.00000000000000    23.71686603455308     0.00000000000000
     0.00000000000000     0.00000000000000    23.71686603455308
  Ag    
  45    
Direct
     0.51034324505128      0.39808346493489      0.38751116284813   
     0.65096703469130      0.34991849516462      0.54082487926644   
     0.46094537720522      0.29499989070311      0.40864574907702   
     0.45469595071081      0.38398021927578      0.50378457257495   
     0.62433760657377      0.40788836684122      0.43478093971557   
     0.71578861819037      0.44359373399588      0.49923041068386   
     0.54548177610659      0.38271366286361      0.58180058827596   
     0.70660405347632      0.55502615542334      0.56043037345169   
     0.45275496175175      0.49629090200727      0.42307582462807   
     0.75718906061569      0.53477485760673      0.44885795962163   
     0.53856754313761      0.46943037379775      0.49950089591502   
     0.63718125639086      0.52575842823890      0.46420985831488   
     0.33703835777496      0.41610725859273      0.49578328820509   
     0.63279041647469      0.46171342734391      0.57847017858864   
     0.53638021630537      0.48658285763277      0.64017606302488   
     0.44684046862066      0.41034790970222      0.63481829853027   
     0.37039845738886      0.34423186804512      0.58584106170319   
     0.40333738497701      0.59224001336958      0.36589014420272   
     0.63930931782563      0.54619469838637      0.65999983584925   
     0.42090521646547      0.49697949373268      0.54496504907869   
     0.55289958449721      0.32603864448493      0.47712649774779   
     0.36895333336871      0.30709708214412      0.47780026908906   
     0.58490345471921      0.64877334854534      0.65126674187730   
     0.69362406577979      0.47645067857327      0.37076655331032   
     0.58485226680889      0.57100951807040      0.55827853480469   
     0.48878870783038      0.58016958655575      0.49867251078486   
     0.69878782484347      0.63090089652561      0.46210936922890   
     0.39309935661610      0.39565475958987      0.39456423162229   
     0.39355462004459      0.62872541540739      0.68018465179119   
     0.33921984026584      0.50127470033001      0.40049877030920   
     0.41238328499771      0.51193585276395      0.67266551057988   
     0.48560303198326      0.58661616668386      0.61845075067444   
     0.64807339533916      0.67185008002656      0.55706115784849   
     0.63717202412270      0.58960620276435      0.36367508641887   
     0.33084058633064      0.45513594650251      0.60949742637944   
     0.56953644945467      0.49280522382118      0.37296263136392   
     0.48114206483632      0.70016021537951      0.65347120910040   
     0.33983638523419      0.57555300487052      0.59523532002400   
     0.29338676474113      0.51794555214150      0.50911317617137   
     0.51752639930549      0.59688959760496      0.37545468368493   
     0.37360693918835      0.59325443095143      0.47551346480535   
     0.58254945725288      0.64139497192390      0.45846033589480   
     0.45878143019612      0.68047884067217      0.44422093501089   
     0.53229432755465      0.69648458753266      0.54760236855715   
     0.41771957987729      0.66400763926182      0.55656759873692   
