Cu13, -933.0 <s> Ni </s>                
   1.00000000000000     
    18.7007979999999989    0.0000000000000000    0.0000000000000000
     0.0000000000000000   18.7007979999999989    0.0000000000000000
     0.0000000000000000    0.0000000000000000   18.7007979999999989
   Ni
    13
Direct
  0.4625241442007005  0.3733289792953019  0.4311802678756489
  0.3597292462722065  0.5108866964403739  0.5498168183965858
  0.5107497700829976  0.4600471709913805  0.3517566042288858
  0.5457748431870652  0.5928127698522146  0.6261280201881820
  0.5569450695379293  0.4753846196536544  0.5940613208607504
  0.4455393135310116  0.5116454149461608  0.6434470675638043
  0.6209603608145843  0.5164369885915495  0.3914642685918611
  0.5133890005040558  0.5701868779518228  0.4136455251561904
  0.5980130477446931  0.5636953037944410  0.5106570719941407
  0.5458110795554936  0.4564648607004115  0.4695056543652496
  0.4738017940882838  0.5561865703625177  0.5324882029612117
  0.4487825276816277  0.4249184001807834  0.5467742963280301
  0.4179798027993510  0.4880053513187569  0.4390748814894450
 
  0.00000000E+00  0.00000000E+00  0.00000000E+00
  0.00000000E+00  0.00000000E+00  0.00000000E+00
  0.00000000E+00  0.00000000E+00  0.00000000E+00
  0.00000000E+00  0.00000000E+00  0.00000000E+00
  0.00000000E+00  0.00000000E+00  0.00000000E+00
  0.00000000E+00  0.00000000E+00  0.00000000E+00
  0.00000000E+00  0.00000000E+00  0.00000000E+00
  0.00000000E+00  0.00000000E+00  0.00000000E+00
  0.00000000E+00  0.00000000E+00  0.00000000E+00
  0.00000000E+00  0.00000000E+00  0.00000000E+00
  0.00000000E+00  0.00000000E+00  0.00000000E+00
  0.00000000E+00  0.00000000E+00  0.00000000E+00
  0.00000000E+00  0.00000000E+00  0.00000000E+00
