Al11, -29.49291185 <s> Ag </s>          
   1.00000000000000     
    19.4783024132853591    0.0000000000000000    0.0000000000000000
     0.0000000000000000   19.4783024132853591    0.0000000000000000
     0.0000000000000000    0.0000000000000000   19.4783024132853591
   Ag
    11
Direct
  0.6333199301668793  0.6244259991780435  0.4758178805831451
  0.5742501346376966  0.5371077243915603  0.5707429091729823
  0.4909738148612933  0.6162360045177580  0.4615756197033058
  0.5635191985234594  0.5003403751632546  0.4280606467912157
  0.3696370357331895  0.3677480585250674  0.5040674886808909
  0.5468085591675681  0.6771670362318885  0.5783541695770443
  0.4955168910551066  0.3729550945031388  0.4437292859810291
  0.4178073536963601  0.4966809524020961  0.4599043755899026
  0.6071442302645641  0.4062071971090116  0.5263971528137789
  0.4378530990641935  0.5749689158298935  0.5867891307003218
  0.4740036393689080  0.4350676506928414  0.5754450285155027
 
  0.00000000E+00  0.00000000E+00  0.00000000E+00
  0.00000000E+00  0.00000000E+00  0.00000000E+00
  0.00000000E+00  0.00000000E+00  0.00000000E+00
  0.00000000E+00  0.00000000E+00  0.00000000E+00
  0.00000000E+00  0.00000000E+00  0.00000000E+00
  0.00000000E+00  0.00000000E+00  0.00000000E+00
  0.00000000E+00  0.00000000E+00  0.00000000E+00
  0.00000000E+00  0.00000000E+00  0.00000000E+00
  0.00000000E+00  0.00000000E+00  0.00000000E+00
  0.00000000E+00  0.00000000E+00  0.00000000E+00
  0.00000000E+00  0.00000000E+00  0.00000000E+00
