Al41, -130.06642171 <s> Ag </s>
  1.00000000000000
    22.98381692174123     0.00000000000000     0.00000000000000
     0.00000000000000    22.98381692174123     0.00000000000000
     0.00000000000000     0.00000000000000    22.98381692174123
  Ag    
  41    
Direct
     0.73697112606241      0.52252872096898      0.54184109758849   
     0.65345916336162      0.58718230916886      0.60295611744193   
     0.62983482701516      0.52639248200162      0.70605909015543   
     0.73073931218171      0.51493353417384      0.42017790684837   
     0.66208433434150      0.45611531312492      0.61189090546592   
     0.64355910012804      0.57728386081336      0.48155283089496   
     0.53886508567312      0.58050710626627      0.64440202994747   
     0.56131798025167      0.64480662266002      0.54243773724998   
     0.51647986057164      0.51776214100875      0.74909927073836   
     0.65413215999949      0.44737099408387      0.49064253991213   
     0.56637615158978      0.51049405328909      0.54847964546934   
     0.54566519148201      0.44869500674247      0.65193277290258   
     0.63763396728649      0.56769318756536      0.35960793683182   
     0.55389586211046      0.63418729604715      0.41748173907302   
     0.42382635331002      0.57096156633948      0.69345531690296   
     0.58248149617223      0.37760366107815      0.56195550274812   
     0.65083279804839      0.43870005537352      0.36696407409600   
     0.44698948704151      0.63269088067532      0.58951685564731   
     0.46421960458110      0.69457272085216      0.48825643708321   
     0.55654192806329      0.50386533948413      0.42847592850575   
     0.45267796295011      0.50456028210597      0.58766204488874   
     0.32972859195193      0.61816218483452      0.63626059504780   
     0.47006702432714      0.56950182661858      0.48496321738443   
     0.45686501892204      0.37788502393575      0.59697438278265   
     0.43007121742045      0.44349570071068      0.69318446570420   
     0.57197962551067      0.37879641510422      0.43849093620122   
     0.55293361479981      0.49909110905425      0.30324097911233   
     0.47672930783827      0.43686515340291      0.49015157686438   
     0.35007863687292      0.68087403629648      0.53568776436322   
     0.56016128423202      0.37744897939655      0.31489227469264   
     0.45549831741974      0.68598645893700      0.36908369171386   
     0.49702523028851      0.31473647075777      0.50600657805143   
     0.46614944022801      0.56360776675915      0.35948445430914   
     0.35954899579988      0.43323617807397      0.53537076617222   
     0.33320007977176      0.49492941031690      0.63641313303835   
     0.35487601867403      0.55663789188659      0.52990801383789   
     0.46703014977548      0.44102954290571      0.36821376119748   
     0.37401451894661      0.62162210009056      0.42953606516651   
     0.47672460947326      0.31757228956762      0.38657051142368   
     0.38399776865055      0.38146302686952      0.43241476090166   
     0.37704623085104      0.50096465389120      0.42422672607292   
