Al18, -52.93598962 <s> Ag </s>          
   1.00000000000000     
    19.8230234833307613    0.0000000000000000    0.0000000000000000
     0.0000000000000000   19.8230234833307613    0.0000000000000000
     0.0000000000000000    0.0000000000000000   19.8230234833307613
   Ag
    18
Direct
  0.5296485644325620  0.5961388563273365  0.4140507259396637
  0.4957703890442329  0.5148322338415919  0.5229741885468092
  0.4865649697674042  0.3675042469239650  0.4544269894273222
  0.5023798927791265  0.6019184420427027  0.6479817345733339
  0.3680280919835653  0.4454757159786251  0.4834162993396950
  0.7094405320835607  0.6236844762480572  0.5752025519511424
  0.6218627080678757  0.5267628046094188  0.6232538577945382
  0.4400290809695295  0.6546566255942873  0.5392936920415400
  0.4390703222429261  0.3865310392103394  0.5830508607025771
  0.3771388265353055  0.5762463989538864  0.4486597612453657
  0.4471266491677216  0.4875612965296136  0.3693818594970592
  0.5107488239169419  0.3754638291905523  0.3177038266999737
  0.5046691998326469  0.4679122994951251  0.6690751877361190
  0.5900933885565254  0.4135355838775682  0.5420524431973444
  0.6482794683958576  0.5385846509193268  0.4854523297083143
  0.5815874268504956  0.4586411223976347  0.4014336017683969
  0.5788777960329782  0.6502256717758490  0.5368365068451735
  0.3823635538515885  0.5293884062735024  0.6007774606675832
 
  0.00000000E+00  0.00000000E+00  0.00000000E+00
  0.00000000E+00  0.00000000E+00  0.00000000E+00
  0.00000000E+00  0.00000000E+00  0.00000000E+00
  0.00000000E+00  0.00000000E+00  0.00000000E+00
  0.00000000E+00  0.00000000E+00  0.00000000E+00
  0.00000000E+00  0.00000000E+00  0.00000000E+00
  0.00000000E+00  0.00000000E+00  0.00000000E+00
  0.00000000E+00  0.00000000E+00  0.00000000E+00
  0.00000000E+00  0.00000000E+00  0.00000000E+00
  0.00000000E+00  0.00000000E+00  0.00000000E+00
  0.00000000E+00  0.00000000E+00  0.00000000E+00
  0.00000000E+00  0.00000000E+00  0.00000000E+00
  0.00000000E+00  0.00000000E+00  0.00000000E+00
  0.00000000E+00  0.00000000E+00  0.00000000E+00
  0.00000000E+00  0.00000000E+00  0.00000000E+00
  0.00000000E+00  0.00000000E+00  0.00000000E+00
  0.00000000E+00  0.00000000E+00  0.00000000E+00
  0.00000000E+00  0.00000000E+00  0.00000000E+00
