Rh11, -739.0 <s> Ni </s>                
   1.00000000000000     
    17.7192639999999990    0.0000000000000000    0.0000000000000000
     0.0000000000000000   17.7192639999999990    0.0000000000000000
     0.0000000000000000    0.0000000000000000   17.7192639999999990
   Ni
    11
Direct
  0.4023539935208857  0.4593230793932901  0.4242769570883579
  0.5202005813630696  0.4936901674912770  0.4662916509529919
  0.5379337396290874  0.4405551388169434  0.5918538383377564
  0.4686288113012074  0.5663369400542131  0.3718574960663481
  0.6158857988087147  0.5367059098947261  0.5419860560584880
  0.6147181393136044  0.4079435322731921  0.4902018578602795
  0.4813602263499632  0.3729980676393226  0.4912971237633147
  0.4969235779302651  0.5656811021245000  0.5937246374930739
  0.4141103502160472  0.5727591587138665  0.4919939013995286
  0.5362043577314872  0.6223967032026925  0.4751007424965311
  0.4116804283369629  0.4616102003959550  0.5614157474859487
 
  0.00000000E+00  0.00000000E+00  0.00000000E+00
  0.00000000E+00  0.00000000E+00  0.00000000E+00
  0.00000000E+00  0.00000000E+00  0.00000000E+00
  0.00000000E+00  0.00000000E+00  0.00000000E+00
  0.00000000E+00  0.00000000E+00  0.00000000E+00
  0.00000000E+00  0.00000000E+00  0.00000000E+00
  0.00000000E+00  0.00000000E+00  0.00000000E+00
  0.00000000E+00  0.00000000E+00  0.00000000E+00
  0.00000000E+00  0.00000000E+00  0.00000000E+00
  0.00000000E+00  0.00000000E+00  0.00000000E+00
  0.00000000E+00  0.00000000E+00  0.00000000E+00
