Pt13, -57.17035892 <s> Cu </s>          
   1.00000000000000     
    18.7464913711824899    0.0000000000000000    0.0000000000000000
     0.0000000000000000   18.7464913711824899    0.0000000000000000
     0.0000000000000000    0.0000000000000000   18.7464913711824899
   Cu
    13
Direct
  0.4375017535568528  0.3467555280269944  0.3899375908229719
  0.4064825311477584  0.4623010513233696  0.3388052188074505
  0.5559302085777256  0.3192391053806907  0.4294665248390327
  0.3692143735432244  0.4369661186738218  0.4554127154752184
  0.3215066207767227  0.5409006477940841  0.4004653747013373
  0.3771414163504900  0.3989589540122747  0.5760309285279533
  0.4861980203424526  0.3993186678143715  0.5072926396581263
  0.6135102268365598  0.4156286617083750  0.4910055044733727
  0.5257377166893890  0.4447930518917473  0.3947300755584935
  0.4467704740402131  0.5500140448599979  0.4248273129693044
  0.5468624497488728  0.5229775577233836  0.5035932223033288
  0.4229135488018116  0.5139581848605077  0.5465968533849659
  0.4731201663475967  0.6269639707968038  0.5252692868247738
 
  0.00000000E+00  0.00000000E+00  0.00000000E+00
  0.00000000E+00  0.00000000E+00  0.00000000E+00
  0.00000000E+00  0.00000000E+00  0.00000000E+00
  0.00000000E+00  0.00000000E+00  0.00000000E+00
  0.00000000E+00  0.00000000E+00  0.00000000E+00
  0.00000000E+00  0.00000000E+00  0.00000000E+00
  0.00000000E+00  0.00000000E+00  0.00000000E+00
  0.00000000E+00  0.00000000E+00  0.00000000E+00
  0.00000000E+00  0.00000000E+00  0.00000000E+00
  0.00000000E+00  0.00000000E+00  0.00000000E+00
  0.00000000E+00  0.00000000E+00  0.00000000E+00
  0.00000000E+00  0.00000000E+00  0.00000000E+00
  0.00000000E+00  0.00000000E+00  0.00000000E+00
