Pt13, -57.17035892 <s> Cu </s>
  1.00000000000000
    18.74649137118249     0.00000000000000     0.00000000000000
     0.00000000000000    18.74649137118249     0.00000000000000
     0.00000000000000     0.00000000000000    18.74649137118249
  Cu    
  13    
Direct
     0.49155794562754      0.36022047676035      0.31168012971453   
     0.39042561792134      0.42687432426453      0.34361567298505   
     0.54420706434274      0.35487376756405      0.42478744900673   
     0.36889958996834      0.43403093868112      0.46752712932679   
     0.32349289302337      0.52088744547135      0.38384408775631   
     0.38300294446041      0.44137082834376      0.59102710845342   
     0.47036620805180      0.38637342958191      0.52146213323632   
     0.59945052122927      0.39303535149707      0.52666384727651   
     0.49920784237802      0.45964374001266      0.38482362130651   
     0.42587834541090      0.54207283134054      0.45110397455626   
     0.52945217836810      0.49325490061825      0.50627159052099   
     0.44190777663679      0.54821927440836      0.57323373834945   
     0.51504057934104      0.61791823632248      0.49739276585746   
