Ag12, -929.0 <s> Pd </s>                
   1.00000000000000     
    18.9402620000000006    0.0000000000000000    0.0000000000000000
     0.0000000000000000   18.9402620000000006    0.0000000000000000
     0.0000000000000000    0.0000000000000000   18.9402620000000006
   Pd
    12
Direct
  0.4976408785794960  0.6443141977570077  0.5000000000000000
  0.5573923856162349  0.5355314387253682  0.5691991899544003
  0.4437744276429572  0.5958363605848326  0.6218501932048370
  0.5562255723570428  0.4041636394151674  0.3781498067951629
  0.4437744276429572  0.5958363605848326  0.3781498067951629
  0.4426076143837649  0.4644685612746317  0.4308008100455997
  0.5023591214205037  0.3556858022429924  0.5000000000000000
  0.5562255723570428  0.4041636394151674  0.6218501932048370
  0.3792714660428038  0.5705506081866927  0.5000000000000000
  0.4426076143837649  0.4644685612746317  0.5691991899544003
  0.5573923856162349  0.5355314387253682  0.4308008100455997
  0.6207285339571961  0.4294493918133074  0.5000000000000000
 
  0.00000000E+00  0.00000000E+00  0.00000000E+00
  0.00000000E+00  0.00000000E+00  0.00000000E+00
  0.00000000E+00  0.00000000E+00  0.00000000E+00
  0.00000000E+00  0.00000000E+00  0.00000000E+00
  0.00000000E+00  0.00000000E+00  0.00000000E+00
  0.00000000E+00  0.00000000E+00  0.00000000E+00
  0.00000000E+00  0.00000000E+00  0.00000000E+00
  0.00000000E+00  0.00000000E+00  0.00000000E+00
  0.00000000E+00  0.00000000E+00  0.00000000E+00
  0.00000000E+00  0.00000000E+00  0.00000000E+00
  0.00000000E+00  0.00000000E+00  0.00000000E+00
  0.00000000E+00  0.00000000E+00  0.00000000E+00
