Ag11, -948.0 <s> Pd </s>                
   1.00000000000000     
    20.6401159999999990    0.0000000000000000    0.0000000000000000
     0.0000000000000000   20.6401159999999990    0.0000000000000000
     0.0000000000000000    0.0000000000000000   20.6401159999999990
   Pd
    11
Direct
  0.5000000000000000  0.5000000000000000  0.6186402486223092
  0.5660954934887760  0.5642882169549158  0.5284242135988941
  0.5000000000000000  0.6714604615409061  0.5407219832213164
  0.4339045065112239  0.5642882169549158  0.5284242135988941
  0.4339045065112239  0.4357117830450842  0.5284242135988941
  0.4383692068514697  0.5000000000000000  0.4164202273241436
  0.5000000000000000  0.6139631731405040  0.4266892414936246
  0.5616307931485305  0.5000000000000000  0.4164202273241436
  0.5660954934887760  0.4357117830450842  0.5284242135988941
  0.5000000000000000  0.3860368268594962  0.4266892414936246
  0.5000000000000000  0.3285395384590939  0.5407219832213164
 
  0.00000000E+00  0.00000000E+00  0.00000000E+00
  0.00000000E+00  0.00000000E+00  0.00000000E+00
  0.00000000E+00  0.00000000E+00  0.00000000E+00
  0.00000000E+00  0.00000000E+00  0.00000000E+00
  0.00000000E+00  0.00000000E+00  0.00000000E+00
  0.00000000E+00  0.00000000E+00  0.00000000E+00
  0.00000000E+00  0.00000000E+00  0.00000000E+00
  0.00000000E+00  0.00000000E+00  0.00000000E+00
  0.00000000E+00  0.00000000E+00  0.00000000E+00
  0.00000000E+00  0.00000000E+00  0.00000000E+00
  0.00000000E+00  0.00000000E+00  0.00000000E+00
