Al52, -166.45848642 <s> Ag </s>
  1.00000000000000
    23.69299073130384     0.00000000000000     0.00000000000000
     0.00000000000000    23.69299073130384     0.00000000000000
     0.00000000000000     0.00000000000000    23.69299073130384
  Ag    
  52    
Direct
     0.37249400870416      0.49030494930725      0.69882667407608   
     0.29557374111088      0.49129231890143      0.52595443156370   
     0.34800139820342      0.55604729343950      0.44178379644803   
     0.30302864785564      0.42919190395435      0.62786415123127   
     0.32928338054809      0.43661657508150      0.42435532684923   
     0.34012366160389      0.59466656181342      0.56039528564593   
     0.42780710896429      0.58710207370062      0.64949078499083   
     0.41552099281683      0.68519524947793      0.57745170454057   
     0.39661736837961      0.50605329303554      0.34789122958935   
     0.38493089760920      0.66282691551627      0.46676475047888   
     0.42630816971294      0.76965944974385      0.49231501497027   
     0.48342050245625      0.47550315838044      0.67109308941133   
     0.36005985332024      0.39203308313275      0.53181266963589   
     0.39888824986253      0.49310342601134      0.58384870707835   
     0.43150592368531      0.47290157699734      0.46759745822382   
     0.41527391719519      0.38518574916946      0.63689047742697   
     0.43300660507690      0.39807834549697      0.35906328337507   
     0.45557642433492      0.57781258555032      0.52741542586044   
     0.52116860349355      0.64449221843010      0.59974983553509   
     0.51610058812538      0.75943611961943      0.56586595515069   
     0.45570586542184      0.58700125822753      0.41261020050239   
     0.50075260090184      0.43560336000228      0.55524011636161   
     0.53790867575062      0.57776941041281      0.69613503481111   
     0.50621147400282      0.67957584002346      0.47519277470755   
     0.39213436134209      0.32794056266670      0.44194455341912   
     0.45703480841982      0.32161150481250      0.54280143133781   
     0.52903218175535      0.35667296649235      0.64716369822550   
     0.55978250254640      0.53128025736201      0.58528115249647   
     0.56602302214255      0.48174420882960      0.27734865448675   
     0.55814745293002      0.56434666424564      0.46954163358122   
     0.59439110291772      0.47151033536210      0.70175367152418   
     0.48852748170153      0.56576345647766      0.30294755516457   
     0.50358468791387      0.37881892964388      0.45068600960185   
     0.53768920023031      0.65799154691522      0.36449954328250   
     0.52021948717272      0.48392457920796      0.39162937980744   
     0.57073622772609      0.33628157156537      0.53708312547302   
     0.62970677044380      0.62921521012033      0.63745760679865   
     0.60055300128786      0.45369349251439      0.48352580605996   
     0.54429317549506      0.37873999905475      0.33740644345360   
     0.64963718272630      0.57105227265205      0.74058400989519   
     0.60783222159982      0.69304862889965      0.53670973116412   
     0.60587897521688      0.56343136592229      0.35265349986352   
     0.61916098829685      0.42314281304665      0.59929913016233   
     0.67786113176389      0.52138459974156      0.63430338651106   
     0.65378346833462      0.58180590590811      0.53389710223451   
     0.63723530336013      0.45253135275688      0.36369294713715   
     0.68475565188039      0.35613964386323      0.52539030241756   
     0.63694060048678      0.64468704325868      0.43240635823757   
     0.61671537555755      0.35150693976042      0.42566363049122   
     0.68303005247298      0.53351027140816      0.43495770736695   
     0.70739956236847      0.47487184256854      0.53306771239034   
     0.72272929544012      0.41525394926682      0.42925937025976   
