Al12, -32.90270182 <s> Cu </s>          
   1.00000000000000     
    18.5057750711265783    0.0000000000000000    0.0000000000000000
     0.0000000000000000   18.5057750711265783    0.0000000000000000
     0.0000000000000000    0.0000000000000000   18.5057750711265783
   Cu
    12
Direct
  0.5653445754284867  0.5582357238208041  0.4860593709057351
  0.4354634197543706  0.5537879838148931  0.4962504103155713
  0.6200599908369131  0.4633267014304306  0.4113008511356416
  0.4962414855812309  0.4395617807314346  0.4982564906922324
  0.5035184387548071  0.5068458137673847  0.3851090967654634
  0.3894038034982498  0.4647026307371858  0.5830660913391796
  0.3777811083803729  0.5408034432559676  0.3732771388188476
  0.5326214308350431  0.3712719347213663  0.3918069711920965
  0.3234626747871817  0.3565684608834404  0.5422498950242003
  0.4160207178229537  0.4141154092996118  0.3540708319092708
  0.3568262914465275  0.4502129840251031  0.4629398117857715
  0.4187462136675092  0.3343569248253922  0.4564906720784259
 
  0.00000000E+00  0.00000000E+00  0.00000000E+00
  0.00000000E+00  0.00000000E+00  0.00000000E+00
  0.00000000E+00  0.00000000E+00  0.00000000E+00
  0.00000000E+00  0.00000000E+00  0.00000000E+00
  0.00000000E+00  0.00000000E+00  0.00000000E+00
  0.00000000E+00  0.00000000E+00  0.00000000E+00
  0.00000000E+00  0.00000000E+00  0.00000000E+00
  0.00000000E+00  0.00000000E+00  0.00000000E+00
  0.00000000E+00  0.00000000E+00  0.00000000E+00
  0.00000000E+00  0.00000000E+00  0.00000000E+00
  0.00000000E+00  0.00000000E+00  0.00000000E+00
  0.00000000E+00  0.00000000E+00  0.00000000E+00
