Pt11, -47.55837605 <s> Pd </s>          
   1.00000000000000     
    18.0398700285844384    0.0000000000000000    0.0000000000000000
     0.0000000000000000   18.0398700285844384    0.0000000000000000
     0.0000000000000000    0.0000000000000000   18.0398700285844384
   Pd
    11
Direct
  0.6267578227451998  0.3815296715440949  0.4861968841162568
  0.4865715867305078  0.3996971057897989  0.4997464970751588
  0.3891619878688500  0.3958510606678716  0.3938913021273191
  0.5883736903455066  0.4855901804965678  0.5755222513579087
  0.5728822539353509  0.4980256649041479  0.4264149868407842
  0.3468903905148988  0.4387839079212784  0.5233914050400212
  0.4453784979831772  0.5180581769198550  0.5902738246737832
  0.5440222836922687  0.5973718668743130  0.6536212240555791
  0.4265450836188842  0.5273579836479374  0.4381664588083681
  0.5282661237041254  0.6136258142460329  0.5125999089679335
  0.5150587849267673  0.6147848226460803  0.3706291500374276
 
  0.00000000E+00  0.00000000E+00  0.00000000E+00
  0.00000000E+00  0.00000000E+00  0.00000000E+00
  0.00000000E+00  0.00000000E+00  0.00000000E+00
  0.00000000E+00  0.00000000E+00  0.00000000E+00
  0.00000000E+00  0.00000000E+00  0.00000000E+00
  0.00000000E+00  0.00000000E+00  0.00000000E+00
  0.00000000E+00  0.00000000E+00  0.00000000E+00
  0.00000000E+00  0.00000000E+00  0.00000000E+00
  0.00000000E+00  0.00000000E+00  0.00000000E+00
  0.00000000E+00  0.00000000E+00  0.00000000E+00
  0.00000000E+00  0.00000000E+00  0.00000000E+00
