Al11, -29.59040682 <s> Pd </s>          
   1.00000000000000     
    19.5984177959785804    0.0000000000000000    0.0000000000000000
     0.0000000000000000   19.5984177959785804    0.0000000000000000
     0.0000000000000000    0.0000000000000000   19.5984177959785804
   Pd
    11
Direct
  0.3650651816031765  0.6099804264643880  0.4589778371324717
  0.4567840745277722  0.5278308620262254  0.4053883285447579
  0.4937943499572369  0.6417171608761812  0.4736006979791498
  0.5634053650335979  0.5360962211680685  0.5037661171215319
  0.3398931596415201  0.4783974910147401  0.4621283025965432
  0.5579402567127485  0.4363775007354363  0.4180259495825543
  0.4342799432501114  0.5353533853791121  0.5467666219097094
  0.4490797598588068  0.4107314031768518  0.4884268761674297
  0.5253951729081768  0.4419423845082061  0.5929423467988960
  0.5563494891968706  0.3350805403178963  0.5113851876358956
  0.6444193247501101  0.4345888991810320  0.5248755803271975
 
  0.00000000E+00  0.00000000E+00  0.00000000E+00
  0.00000000E+00  0.00000000E+00  0.00000000E+00
  0.00000000E+00  0.00000000E+00  0.00000000E+00
  0.00000000E+00  0.00000000E+00  0.00000000E+00
  0.00000000E+00  0.00000000E+00  0.00000000E+00
  0.00000000E+00  0.00000000E+00  0.00000000E+00
  0.00000000E+00  0.00000000E+00  0.00000000E+00
  0.00000000E+00  0.00000000E+00  0.00000000E+00
  0.00000000E+00  0.00000000E+00  0.00000000E+00
  0.00000000E+00  0.00000000E+00  0.00000000E+00
  0.00000000E+00  0.00000000E+00  0.00000000E+00
