Pt10, -41.8502462 <s> Ag </s>           
   1.00000000000000     
    18.3527224439910484    0.0000000000000000    0.0000000000000000
     0.0000000000000000   18.3527224439910484    0.0000000000000000
     0.0000000000000000    0.0000000000000000   18.3527224439910484
   Ag
    10
Direct
  0.6495660499248371  0.5855231856584914  0.6558362533923737
  0.5566420421351804  0.4745497002166610  0.6266885721447490
  0.6349348121410578  0.5291834239166971  0.5072354519704788
  0.4725276928911392  0.3563016156247968  0.6104081151116444
  0.5297739284151607  0.6160298772720613  0.5728024345518022
  0.5672807324125606  0.5079233376986516  0.3787796124932458
  0.4015220250303934  0.6769703641557658  0.5386814495669756
  0.4490082783270882  0.5670163395070307  0.4549710545416192
  0.5081502631015592  0.4306622062815473  0.4895089446994305
  0.4227214679078288  0.4543048673124990  0.3628285476027889
 
  0.00000000E+00  0.00000000E+00  0.00000000E+00
  0.00000000E+00  0.00000000E+00  0.00000000E+00
  0.00000000E+00  0.00000000E+00  0.00000000E+00
  0.00000000E+00  0.00000000E+00  0.00000000E+00
  0.00000000E+00  0.00000000E+00  0.00000000E+00
  0.00000000E+00  0.00000000E+00  0.00000000E+00
  0.00000000E+00  0.00000000E+00  0.00000000E+00
  0.00000000E+00  0.00000000E+00  0.00000000E+00
  0.00000000E+00  0.00000000E+00  0.00000000E+00
  0.00000000E+00  0.00000000E+00  0.00000000E+00
