Y11, -627.0 <s> Cu </s>                 
   1.00000000000000     
    18.9274020000000007    0.0000000000000000    0.0000000000000000
     0.0000000000000000   18.9274020000000007    0.0000000000000000
     0.0000000000000000    0.0000000000000000   18.9274020000000007
   Cu
    11
Direct
  0.6081936035561134  0.4564262101803894  0.5050331606860041
  0.4446119827847969  0.5365139745399375  0.5079788111918691
  0.4983608337704938  0.3996774470213436  0.4742421060616879
  0.5238775617171657  0.6252314892989961  0.4548759232273849
  0.4138534892667532  0.4635884681304056  0.4078015073001262
  0.3822801721545960  0.4202400642441209  0.5248734412390138
  0.6424443944837737  0.5696009166507963  0.4497552079115287
  0.5361728570175690  0.5073597659593553  0.4138253867035845
  0.3854875047440063  0.5017822509834663  0.6186750015224923
  0.5638310852572973  0.5630173401860167  0.5543591130799294
  0.5008865444012033  0.4565621311127065  0.5885803264994958
 
  0.00000000E+00  0.00000000E+00  0.00000000E+00
  0.00000000E+00  0.00000000E+00  0.00000000E+00
  0.00000000E+00  0.00000000E+00  0.00000000E+00
  0.00000000E+00  0.00000000E+00  0.00000000E+00
  0.00000000E+00  0.00000000E+00  0.00000000E+00
  0.00000000E+00  0.00000000E+00  0.00000000E+00
  0.00000000E+00  0.00000000E+00  0.00000000E+00
  0.00000000E+00  0.00000000E+00  0.00000000E+00
  0.00000000E+00  0.00000000E+00  0.00000000E+00
  0.00000000E+00  0.00000000E+00  0.00000000E+00
  0.00000000E+00  0.00000000E+00  0.00000000E+00
