Al22, -66.78865773 <s> Ag </s>          
   1.00000000000000     
    20.6789331577031099    0.0000000000000000    0.0000000000000000
     0.0000000000000000   20.6789331577031099    0.0000000000000000
     0.0000000000000000    0.0000000000000000   20.6789331577031099
   Ag
    22
Direct
  0.5998639908368975  0.4029323198196703  0.6213180509663803
  0.6139503732407459  0.3153686933960166  0.5113655513002638
  0.6533330928217372  0.5249905968464395  0.5975010960353635
  0.4728181723129031  0.4211285193406372  0.6611797033294313
  0.4996804980777460  0.3809659618868839  0.5325286529091253
  0.6152482270424149  0.4446024190397811  0.4917301480957726
  0.5175779380163783  0.5212335532156404  0.5799699124396872
  0.5972762678055921  0.6477591866887742  0.5872487859685018
  0.3951954335725505  0.5295487301129880  0.6605896932967894
  0.5406535654605237  0.3723965964116799  0.4031999306803749
  0.3879252965388406  0.4482101764418515  0.5520930316949112
  0.4829633222527545  0.5010873589082067  0.4469091740219199
  0.6100651675575122  0.7017847036605361  0.4584055472291040
  0.6149924644131203  0.5723755435491852  0.4741231201098526
  0.4693322387777530  0.6377302381296809  0.6309969139195395
  0.4097619966230521  0.3870830001979843  0.4280552639574418
  0.5916337111916418  0.4911631876378315  0.3641811902681451
  0.3864440071746260  0.5786450860947221  0.5345998074404458
  0.3361308143887244  0.4985884165089172  0.4375896041720002
  0.4970552516143705  0.6405992094428620  0.4968357795040104
  0.4078340061323276  0.6044532783106566  0.3987293828047983
  0.5385293834482111  0.6154488484983960  0.3704522229033341
 
  0.00000000E+00  0.00000000E+00  0.00000000E+00
  0.00000000E+00  0.00000000E+00  0.00000000E+00
  0.00000000E+00  0.00000000E+00  0.00000000E+00
  0.00000000E+00  0.00000000E+00  0.00000000E+00
  0.00000000E+00  0.00000000E+00  0.00000000E+00
  0.00000000E+00  0.00000000E+00  0.00000000E+00
  0.00000000E+00  0.00000000E+00  0.00000000E+00
  0.00000000E+00  0.00000000E+00  0.00000000E+00
  0.00000000E+00  0.00000000E+00  0.00000000E+00
  0.00000000E+00  0.00000000E+00  0.00000000E+00
  0.00000000E+00  0.00000000E+00  0.00000000E+00
  0.00000000E+00  0.00000000E+00  0.00000000E+00
  0.00000000E+00  0.00000000E+00  0.00000000E+00
  0.00000000E+00  0.00000000E+00  0.00000000E+00
  0.00000000E+00  0.00000000E+00  0.00000000E+00
  0.00000000E+00  0.00000000E+00  0.00000000E+00
  0.00000000E+00  0.00000000E+00  0.00000000E+00
  0.00000000E+00  0.00000000E+00  0.00000000E+00
  0.00000000E+00  0.00000000E+00  0.00000000E+00
  0.00000000E+00  0.00000000E+00  0.00000000E+00
  0.00000000E+00  0.00000000E+00  0.00000000E+00
  0.00000000E+00  0.00000000E+00  0.00000000E+00
