Au43, -114.18667828 <s> Ag </s>
  1.00000000000000
    24.18874218343643     0.00000000000000     0.00000000000000
     0.00000000000000    24.18874218343643     0.00000000000000
     0.00000000000000     0.00000000000000    24.18874218343643
  Ag    
  43    
Direct
     0.60649964486340      0.63778172422439      0.41589055311784   
     0.48565587613642      0.64735970804745      0.43447633240402   
     0.56016845257738      0.64998326057638      0.51824316588230   
     0.55438896716655      0.69133328452548      0.62170546557737   
     0.53331649805118      0.57696217938300      0.35655323673506   
     0.64142888487068      0.56516654679216      0.49900190629503   
     0.39704267063571      0.69959821737425      0.38053692502524   
     0.62946625089959      0.52470874064355      0.39392721574693   
     0.61881668655464      0.59752910703621      0.60501343081111   
     0.58764993004115      0.62823853811602      0.71192566201403   
     0.37502051675576      0.60824271010151      0.44400116606964   
     0.42331313040227      0.60270629317383      0.33806503777467   
     0.57625103777126      0.48759038571070      0.30228268782387   
     0.45065949165534      0.61861361387771      0.54305182868726   
     0.45414821121751      0.52798806086915      0.46454787476439   
     0.63900786814732      0.48611550411509      0.58607450634626   
     0.65739618336825      0.45285759036578      0.47819027262408   
     0.50364219113409      0.59114968767140      0.64369497570727   
     0.46195918315219      0.50907051552865      0.29571384059939   
     0.59111729240576      0.51917516683479      0.68787873245842   
     0.53675836232711      0.53189995241364      0.54310712718293   
     0.54553823019471      0.46529360136553      0.44463269224565   
     0.49215795027995      0.47667958483421      0.64773391511409   
     0.40566210709671      0.54285190691354      0.62041349531030   
     0.50225343793181      0.41536436855600      0.25060660137563   
     0.33662946258268      0.59687810699958      0.54837776547743   
     0.62892555279900      0.37573762319029      0.55631745072198   
     0.47849215463563      0.43634715694736      0.53105982306843   
     0.38268280433910      0.50326717090969      0.37745447075702   
     0.59766314932029      0.35977408802386      0.44896833743325   
     0.58746322949051      0.41154850518049      0.65859855202232   
     0.55078675770612      0.39061061329981      0.35292459494429   
     0.33288704184597      0.50463138006548      0.47855037534568   
     0.43652994556396      0.40578342075128      0.34299053138038   
     0.39333131209518      0.42652864969160      0.61307163912508   
     0.30648511358340      0.49707197554398      0.59107001225161   
     0.58117397465311      0.30156871616691      0.62956029034425   
     0.37852307600874      0.40602850278350      0.43863746702272   
     0.48088470500353      0.35580400653567      0.43688199131423   
     0.52978948674517      0.31498505244414      0.52999165665285   
     0.41455630270039      0.34203869008342      0.53138681993671   
     0.31642525206168      0.40215789903661      0.53158897521755   
     0.48668455686451      0.36435321206937      0.62483104082084   
