Pt11, -46.90883332 <s> Ag </s>          
   1.00000000000000     
    18.5927535319742496    0.0000000000000000    0.0000000000000000
     0.0000000000000000   18.5927535319742496    0.0000000000000000
     0.0000000000000000    0.0000000000000000   18.5927535319742496
   Ag
    11
Direct
  0.4009393230413609  0.5529487192483158  0.4895638100762701
  0.3364588390784857  0.4595448982879142  0.5821315715626908
  0.4850677258350353  0.4867476612541726  0.5943862348975308
  0.5355634981122238  0.6117420924370236  0.5151610870259510
  0.5395128477898967  0.4055060335785393  0.4781229166509960
  0.6024342247620840  0.5269143340335807  0.4099075057072273
  0.6820634041582262  0.6233038959894707  0.4944993076258250
  0.4814995330333359  0.6134530640756987  0.3806199860030320
  0.4321778338631458  0.3498157533694767  0.5662493113161240
  0.6316357252922720  0.4939327785895199  0.5503648375536987
  0.5816279275037509  0.5892083227385118  0.6511316343529275
 
  0.00000000E+00  0.00000000E+00  0.00000000E+00
  0.00000000E+00  0.00000000E+00  0.00000000E+00
  0.00000000E+00  0.00000000E+00  0.00000000E+00
  0.00000000E+00  0.00000000E+00  0.00000000E+00
  0.00000000E+00  0.00000000E+00  0.00000000E+00
  0.00000000E+00  0.00000000E+00  0.00000000E+00
  0.00000000E+00  0.00000000E+00  0.00000000E+00
  0.00000000E+00  0.00000000E+00  0.00000000E+00
  0.00000000E+00  0.00000000E+00  0.00000000E+00
  0.00000000E+00  0.00000000E+00  0.00000000E+00
  0.00000000E+00  0.00000000E+00  0.00000000E+00
