Pt11, -46.90883332 <s> Ag </s>          
   1.00000000000000     
    18.5927535319742496    0.0000000000000000    0.0000000000000000
     0.0000000000000000   18.5927535319742496    0.0000000000000000
     0.0000000000000000    0.0000000000000000   18.5927535319742496
   Ag
    11
Direct
  0.4009526184175268  0.5530207329617409  0.4891539752565108
  0.3361665096810567  0.4593342397939152  0.5816794610464182
  0.4852427583112330  0.4873525143483723  0.5946178841066293
  0.5348269945844922  0.6122267255574727  0.5148422947551016
  0.5396917255898466  0.4052585901626476  0.4779800309803492
  0.6013046345514796  0.5275079391614942  0.4105883735967901
  0.6810295796753751  0.6236060508802529  0.4973003126893201
  0.4811452462858986  0.6132028169522910  0.3793725821954415
  0.4321783664711610  0.3501360564196854  0.5667794515836683
  0.6326679990690877  0.4922288507303632  0.5502461386014820
  0.5837744498326604  0.5892430366339884  0.6495776979605621
 
  0.00000000E+00  0.00000000E+00  0.00000000E+00
  0.00000000E+00  0.00000000E+00  0.00000000E+00
  0.00000000E+00  0.00000000E+00  0.00000000E+00
  0.00000000E+00  0.00000000E+00  0.00000000E+00
  0.00000000E+00  0.00000000E+00  0.00000000E+00
  0.00000000E+00  0.00000000E+00  0.00000000E+00
  0.00000000E+00  0.00000000E+00  0.00000000E+00
  0.00000000E+00  0.00000000E+00  0.00000000E+00
  0.00000000E+00  0.00000000E+00  0.00000000E+00
  0.00000000E+00  0.00000000E+00  0.00000000E+00
  0.00000000E+00  0.00000000E+00  0.00000000E+00
