Hf11, -907.0 <s> Pd </s>                
   1.00000000000000     
    18.6602929999999994    0.0000000000000000    0.0000000000000000
     0.0000000000000000   18.6602929999999994    0.0000000000000000
     0.0000000000000000    0.0000000000000000   18.6602929999999994
   Pd
    11
Direct
  0.5360815637782792  0.5225719929182902  0.4758318153126756
  0.6377329031659056  0.5388983547565287  0.5731166255827238
  0.3908413961192604  0.4741450532171511  0.4286760283062868
  0.4296514513525865  0.6120321430101281  0.4568537076360961
  0.4591558066508096  0.3929287631630715  0.5270329281084289
  0.5160466625650234  0.4066554813292739  0.3992704610740341
  0.5992562185782224  0.4061806458011705  0.5223466123615444
  0.5259836359124076  0.4734993003540532  0.6271415498353947
  0.5142434077373544  0.6115835825816370  0.5822045603654250
  0.4077761245965201  0.5223262661852708  0.5625128489176217
  0.4832308354235565  0.5391784166834254  0.3450128566198430
 
  0.00000000E+00  0.00000000E+00  0.00000000E+00
  0.00000000E+00  0.00000000E+00  0.00000000E+00
  0.00000000E+00  0.00000000E+00  0.00000000E+00
  0.00000000E+00  0.00000000E+00  0.00000000E+00
  0.00000000E+00  0.00000000E+00  0.00000000E+00
  0.00000000E+00  0.00000000E+00  0.00000000E+00
  0.00000000E+00  0.00000000E+00  0.00000000E+00
  0.00000000E+00  0.00000000E+00  0.00000000E+00
  0.00000000E+00  0.00000000E+00  0.00000000E+00
  0.00000000E+00  0.00000000E+00  0.00000000E+00
  0.00000000E+00  0.00000000E+00  0.00000000E+00
