Pt12, -52.23598613 <s> Ag </s>          
   1.00000000000000     
    17.8503821692297997    0.0000000000000000    0.0000000000000000
     0.0000000000000000   17.8503821692297997    0.0000000000000000
     0.0000000000000000    0.0000000000000000   17.8503821692297997
   Ag
    12
Direct
  0.4124122179086846  0.5855867911815825  0.6430737658392949
  0.5145372865355607  0.4749362227386751  0.6263909986041821
  0.4265413378861889  0.6541285169588128  0.4327728086182434
  0.5319568589651530  0.6133576877016655  0.5430077271989302
  0.6366181532799641  0.5684063998734504  0.6541422421194114
  0.4028131855830117  0.5183134868457095  0.5074661404776463
  0.6441624510612943  0.6082503056728048  0.4301408092060446
  0.6300680034735509  0.4874084465961983  0.5205492152626224
  0.6100344629840802  0.3575275132289863  0.5997687403749269
  0.3992019617294544  0.4345463173211228  0.3777790185915606
  0.5169611549005241  0.5303439204285104  0.4029292048380880
  0.5033771562023820  0.3946794191553433  0.4888272328772235
 
  0.00000000E+00  0.00000000E+00  0.00000000E+00
  0.00000000E+00  0.00000000E+00  0.00000000E+00
  0.00000000E+00  0.00000000E+00  0.00000000E+00
  0.00000000E+00  0.00000000E+00  0.00000000E+00
  0.00000000E+00  0.00000000E+00  0.00000000E+00
  0.00000000E+00  0.00000000E+00  0.00000000E+00
  0.00000000E+00  0.00000000E+00  0.00000000E+00
  0.00000000E+00  0.00000000E+00  0.00000000E+00
  0.00000000E+00  0.00000000E+00  0.00000000E+00
  0.00000000E+00  0.00000000E+00  0.00000000E+00
  0.00000000E+00  0.00000000E+00  0.00000000E+00
  0.00000000E+00  0.00000000E+00  0.00000000E+00
