Pt39, -194.74371785 <s> Ag </s>         
   1.00000000000000     
    23.0626147907429804    0.0000000000000000    0.0000000000000000
     0.0000000000000000   23.0626147907429804    0.0000000000000000
     0.0000000000000000    0.0000000000000000   23.0626147907429804
   Ag
    39
Direct
  0.4748026866635113  0.3553842379182879  0.3835468212408115
  0.5776257579344557  0.4012852173569093  0.4268206973628527
  0.5131307427116502  0.5887163389823379  0.3372270375853325
  0.4908887596613108  0.4743493624452548  0.3770800855080422
  0.6228565724626014  0.6335353930967441  0.3675612078369307
  0.7014195970682755  0.5689834668899982  0.4392008899945177
  0.7790872583917817  0.5090908581061995  0.5108259366435186
  0.6824765749920219  0.4487098394333102  0.4657781440335048
  0.6014607605205742  0.5177516752832588  0.3951911724404905
  0.4996689139944628  0.3359317891374264  0.5012625179887036
  0.3880661031856742  0.4323681009648488  0.4241479033483515
  0.3995610898979383  0.5536940839827950  0.3763768177935349
  0.4227806569836891  0.6687977494158371  0.3395036663534488
  0.5207013846055845  0.6892668429276803  0.4105374041610216
  0.6001623580734138  0.3964304185231768  0.5448598742241696
  0.4934855012725057  0.4602115788630383  0.5060733158054022
  0.6116886291393726  0.6431097881888460  0.4847674212618457
  0.5053120125037542  0.5732380820454714  0.4579726739234910
  0.6930641272151675  0.4678428148546264  0.5865893185531211
  0.3902094034389382  0.5311362931323319  0.4933888024188119
  0.5012652835919316  0.6752085633932438  0.5306983910439982
  0.4963310428798302  0.3924434955475889  0.6097092925538907
  0.7010528367635348  0.5892946256154517  0.5577979789963536
  0.4964143801762830  0.5572954781972346  0.5846989757170976
  0.3893645757060636  0.3096598091488080  0.4533117577290866
  0.5806131973555769  0.4756013122684291  0.6365351148012546
  0.6005481145774970  0.5235658975534536  0.5223047988791075
  0.4072917943881241  0.6506320057173534  0.4565047751258456
  0.3933193425085846  0.3915057181512299  0.5397212927890673
  0.4866635366369157  0.6690130147312884  0.6485758492498696
  0.6639257137292567  0.5557937782823820  0.6687378254880814
  0.3907231086634897  0.3895119989424777  0.6646020677829942
  0.5947753739572419  0.6302667951423677  0.6033130879967761
  0.3948190504723539  0.6227867135489310  0.5745381329388435
  0.3943950495605471  0.4927848530909445  0.6054131165597511
  0.5460154036248306  0.5754455040313328  0.7019977487342106
  0.4140123393427259  0.5806285556388493  0.6865607260263735
  0.4663253407993947  0.5551757898599283  0.7889988250618057
  0.4746408116169057  0.4744973466581336  0.6982137211154928
 
  0.00000000E+00  0.00000000E+00  0.00000000E+00
  0.00000000E+00  0.00000000E+00  0.00000000E+00
  0.00000000E+00  0.00000000E+00  0.00000000E+00
  0.00000000E+00  0.00000000E+00  0.00000000E+00
  0.00000000E+00  0.00000000E+00  0.00000000E+00
  0.00000000E+00  0.00000000E+00  0.00000000E+00
  0.00000000E+00  0.00000000E+00  0.00000000E+00
  0.00000000E+00  0.00000000E+00  0.00000000E+00
  0.00000000E+00  0.00000000E+00  0.00000000E+00
  0.00000000E+00  0.00000000E+00  0.00000000E+00
  0.00000000E+00  0.00000000E+00  0.00000000E+00
  0.00000000E+00  0.00000000E+00  0.00000000E+00
  0.00000000E+00  0.00000000E+00  0.00000000E+00
  0.00000000E+00  0.00000000E+00  0.00000000E+00
  0.00000000E+00  0.00000000E+00  0.00000000E+00
  0.00000000E+00  0.00000000E+00  0.00000000E+00
  0.00000000E+00  0.00000000E+00  0.00000000E+00
  0.00000000E+00  0.00000000E+00  0.00000000E+00
  0.00000000E+00  0.00000000E+00  0.00000000E+00
  0.00000000E+00  0.00000000E+00  0.00000000E+00
  0.00000000E+00  0.00000000E+00  0.00000000E+00
  0.00000000E+00  0.00000000E+00  0.00000000E+00
  0.00000000E+00  0.00000000E+00  0.00000000E+00
  0.00000000E+00  0.00000000E+00  0.00000000E+00
  0.00000000E+00  0.00000000E+00  0.00000000E+00
  0.00000000E+00  0.00000000E+00  0.00000000E+00
  0.00000000E+00  0.00000000E+00  0.00000000E+00
  0.00000000E+00  0.00000000E+00  0.00000000E+00
  0.00000000E+00  0.00000000E+00  0.00000000E+00
  0.00000000E+00  0.00000000E+00  0.00000000E+00
  0.00000000E+00  0.00000000E+00  0.00000000E+00
  0.00000000E+00  0.00000000E+00  0.00000000E+00
  0.00000000E+00  0.00000000E+00  0.00000000E+00
  0.00000000E+00  0.00000000E+00  0.00000000E+00
  0.00000000E+00  0.00000000E+00  0.00000000E+00
  0.00000000E+00  0.00000000E+00  0.00000000E+00
  0.00000000E+00  0.00000000E+00  0.00000000E+00
  0.00000000E+00  0.00000000E+00  0.00000000E+00
  0.00000000E+00  0.00000000E+00  0.00000000E+00
