Al47, -149.26300951 <s> Ag </s>
  1.00000000000000
    22.59168399381810     0.00000000000000     0.00000000000000
     0.00000000000000    22.59168399381810     0.00000000000000
     0.00000000000000     0.00000000000000    22.59168399381810
  Ag    
  47    
Direct
     0.31541416397985      0.58909925599194      0.48519994739357   
     0.50784214783324      0.72693335423159      0.55078866743600   
     0.35285329672195      0.60332879707467      0.60910972998082   
     0.55804149540843      0.61764194968884      0.68256950920593   
     0.38034971590886      0.64307956780838      0.38813381397977   
     0.40994302667236      0.66054635234769      0.51660097022587   
     0.45276166987752      0.66552000467541      0.64067728570724   
     0.47018379395839      0.72784782681720      0.43094979088092   
     0.42663416347981      0.72990490972312      0.31816899431122   
     0.61314050293383      0.68527917741280      0.59228333977063   
     0.31404092715256      0.46893403842272      0.48216241363901   
     0.57030054543582      0.50616632671216      0.72638845324681   
     0.58011755544743      0.67927250960878      0.46403888605209   
     0.32692199597531      0.48394891007807      0.60075286774193   
     0.47586295167095      0.43225280124124      0.71057772394693   
     0.52704656266611      0.60001675456452      0.55146121739836   
     0.38227347240181      0.52133781825699      0.39363674341973   
     0.66798791215163      0.57774970681110      0.63935993415609   
     0.45782021047015      0.54142154456297      0.65313385078621   
     0.37513817038796      0.38930729783090      0.66046882556629   
     0.41923511760086      0.53424535412751      0.52440915741559   
     0.48566977624567      0.59018404468048      0.43552325544955   
     0.52204507261057      0.65698038339041      0.33992459739650   
     0.37617571096304      0.39091752044965      0.41502235406540   
     0.46262072800528      0.43689777464356      0.57842370420346   
     0.57060869187141      0.50224377877249      0.60330356892585   
     0.45410219544946      0.44792288117100      0.32776625225008   
     0.35757654622804      0.36629650341189      0.54061049914420   
     0.53920741758399      0.53500154819735      0.33623919778393   
     0.67353891059238      0.61479201664587      0.51592140258685   
     0.63248709000730      0.60809485551021      0.38203769974373   
     0.59022518336057      0.52076723920617      0.46690612681152   
     0.47908558151983      0.45669568661137      0.45068708571820   
     0.56768416515274      0.41260442647604      0.52065070207639   
     0.46231277019481      0.31893051583484      0.61690867176238   
     0.69150060700331      0.49140180858279      0.55343833256934   
     0.66481365559867      0.45371386379845      0.66837964022970   
     0.56602957543028      0.38250406307857      0.64858226062988   
     0.46177706456273      0.32553004666583      0.49235196379496   
     0.48138237546796      0.34130081469001      0.37591440086565   
     0.67081291597315      0.36815200916336      0.57556365357494   
     0.57260066023576      0.41798681232171      0.36658067407290   
     0.65777013739187      0.49463376478337      0.34611501200548   
     0.71781772638094      0.53154032100082      0.44355693065632   
     0.67469995962310      0.41308710859518      0.45233976826119   
     0.58782667058888      0.31949682793589      0.44022784481363   
     0.56979748369890      0.29412354942364      0.55811079512089   
