Ti13, -78.67923244 <s> Cu </s>
  1.00000000000000
    19.01234955573798     0.00000000000000     0.00000000000000
     0.00000000000000    19.01234955573798     0.00000000000000
     0.00000000000000     0.00000000000000    19.01234955573798
  Cu    
  13    
Direct
     0.48520038680391      0.50629376277290      0.52966011680189   
     0.48690562398116      0.59092137218979      0.46027959594624   
     0.58608057373262      0.50083727634687      0.46622749075349   
     0.37148446731414      0.55224466528547      0.52428809057306   
     0.50595056738712      0.39124197862334      0.48133144301099   
     0.40250086600585      0.43038570491017      0.52735315537976   
     0.31041999688841      0.43745236798331      0.47094796319291   
     0.39199219808585      0.52039189740401      0.42306820222565   
     0.39461514903134      0.32954272582592      0.45602933772375   
     0.50038472762248      0.48559496010190      0.38589669872346   
     0.59091558845536      0.40791907991577      0.39844292838152   
     0.39655211617084      0.41415933612451      0.38655596737363   
     0.49579833438458      0.34981963215819      0.37074629071774   
