Pt50, -253.97226675 <s> Ag </s>
  1.00000000000000
    23.21070187746601     0.00000000000000     0.00000000000000
     0.00000000000000    23.21070187746601     0.00000000000000
     0.00000000000000     0.00000000000000    23.21070187746601
  Ag    
  50    
Direct
     0.64185608904325      0.40981623876211      0.41129998168499   
     0.46093496205518      0.36626349216211      0.41187178839417   
     0.55277946387069      0.37069954653098      0.47806627290973   
     0.36589050869058      0.35048152301386      0.34516821614875   
     0.65483430967477      0.38081929787052      0.53710193208416   
     0.56885688825587      0.46242844712074      0.33122194080084   
     0.44566970625031      0.36307442258219      0.52954471922197   
     0.46413003345105      0.41385258194355      0.30751217880076   
     0.72196065000698      0.47231223841789      0.47268215856869   
     0.54219299665706      0.36379017676815      0.59700166912884   
     0.66118777758277      0.52423810073272      0.38477936882223   
     0.34894505289260      0.37460534681881      0.45883337451938   
     0.56941533961617      0.58253317689560      0.32741866564318   
     0.63787626654066      0.40470389147443      0.65047134844429   
     0.60368785082825      0.48065929335264      0.50721630711227   
     0.50810903459149      0.47470948357286      0.43086260320828   
     0.33855035938595      0.40039642174604      0.57090229734679   
     0.37842303230321      0.46243766455851      0.37882897310816   
     0.33706439307949      0.48929383304204      0.48697593668164   
     0.70813849935705      0.47860149669513      0.58648172802670   
     0.43307690933153      0.41800775146895      0.63927213399646   
     0.44814308254611      0.48344236307652      0.53148901375987   
     0.57194436296058      0.57290975082654      0.44382231028910   
     0.63463781478372      0.41377108933423      0.76717323569393   
     0.46347814424267      0.53009187981422      0.33409885226677   
     0.38086584003486      0.57215389879295      0.41290720954320   
     0.70849176594921      0.48582264386161      0.70306467213189   
     0.54106056736868      0.48203710997752      0.60287623510234   
     0.68987884718273      0.63158223049704      0.41873095455486   
     0.52980074651592      0.40134700070110      0.70953716899672   
     0.68830172644879      0.57971161120605      0.52322013225170   
     0.35373234109987      0.51077496655598      0.60730482580754   
     0.56747043350862      0.58818048303099      0.56155198401524   
     0.35057170133872      0.60133368349619      0.52290107448086   
     0.47441031807110      0.64120757455952      0.37319623439853   
     0.46874813694072      0.59257377307313      0.49108638371431   
     0.48053879556088      0.51099483460944      0.70052093729586   
     0.58542187084878      0.68135871070280      0.39135949220786   
     0.45542495111776      0.57824916648355      0.60936561001461   
     0.66745895099571      0.57697816854272      0.64260106118463   
     0.59539460831906      0.51120510509987      0.71547739733575   
     0.61918967826176      0.68346889676373      0.50353380303238   
     0.38792712660664      0.68675263460993      0.44495727449574   
     0.64506592870810      0.68490692713423      0.61832605937914   
     0.35209357595940      0.62641391630312      0.63851322117542   
     0.50160952450886      0.70780863136757      0.47236171051460   
     0.55857314182063      0.61594090389466      0.67806624214878   
     0.41880625454717      0.69646553065610      0.55925878178177   
     0.53623069586661      0.70667714327090      0.58618726260170   
     0.45724590178775      0.67821190359431      0.66909422253894   
