Li10, -12.57039429 <s> Cu </s>          
   1.00000000000000     
    18.5262382012377493    0.0000000000000000    0.0000000000000000
     0.0000000000000000   18.5262382012377493    0.0000000000000000
     0.0000000000000000    0.0000000000000000   18.5262382012377493
   Cu
    10
Direct
  0.5001761337156215  0.5350842913985443  0.4623965022974960
  0.3892728947077694  0.4948855868285271  0.4117416818511271
  0.4243846357765898  0.4424042557737734  0.2944534877206854
  0.3887387835067143  0.5359417400564419  0.5381924777748744
  0.3385505887727434  0.4137936512210826  0.4992892709935027
  0.5000287992794504  0.4198163472449501  0.3954430539208779
  0.4637659527522059  0.3159043024890502  0.3196028228025874
  0.4631027487369939  0.4290885505963640  0.5211287142696753
  0.3609859310497152  0.3714176923714254  0.3786274829457119
  0.4475858792123921  0.3182559295300579  0.4557168529336716
 
  0.00000000E+00  0.00000000E+00  0.00000000E+00
  0.00000000E+00  0.00000000E+00  0.00000000E+00
  0.00000000E+00  0.00000000E+00  0.00000000E+00
  0.00000000E+00  0.00000000E+00  0.00000000E+00
  0.00000000E+00  0.00000000E+00  0.00000000E+00
  0.00000000E+00  0.00000000E+00  0.00000000E+00
  0.00000000E+00  0.00000000E+00  0.00000000E+00
  0.00000000E+00  0.00000000E+00  0.00000000E+00
  0.00000000E+00  0.00000000E+00  0.00000000E+00
  0.00000000E+00  0.00000000E+00  0.00000000E+00
