Ti13, -78.49501898 <s> Cu </s>          
   1.00000000000000     
    19.8295935071815812    0.0000000000000000    0.0000000000000000
     0.0000000000000000   19.8295935071815812    0.0000000000000000
     0.0000000000000000    0.0000000000000000   19.8295935071815812
   Cu
    13
Direct
  0.6159296458307848  0.4938997526791281  0.5047094983959242
  0.6162053940724530  0.4155412689133773  0.4046856000796216
  0.5443584249855297  0.5123117250007017  0.4091578927916941
  0.4978459739085096  0.5276738820613797  0.5233781201007882
  0.5292527968134633  0.4115808879711662  0.4886070581034766
  0.4977074451220015  0.4051563051665854  0.3680382097345632
  0.4258613102345130  0.4841910534856109  0.4321852638858049
  0.4244967036109667  0.3551776647980234  0.4550045014523133
  0.4248395150784494  0.4313368819961999  0.5517011595630146
  0.3621018780242992  0.5328114110926181  0.5212531941809855
  0.3614875088099862  0.4096467884564795  0.3647022999091475
  0.3075235039818223  0.5126031744656719  0.4107858831489582
  0.3241666753336125  0.4188972425061819  0.4842610548223188
 
  0.00000000E+00  0.00000000E+00  0.00000000E+00
  0.00000000E+00  0.00000000E+00  0.00000000E+00
  0.00000000E+00  0.00000000E+00  0.00000000E+00
  0.00000000E+00  0.00000000E+00  0.00000000E+00
  0.00000000E+00  0.00000000E+00  0.00000000E+00
  0.00000000E+00  0.00000000E+00  0.00000000E+00
  0.00000000E+00  0.00000000E+00  0.00000000E+00
  0.00000000E+00  0.00000000E+00  0.00000000E+00
  0.00000000E+00  0.00000000E+00  0.00000000E+00
  0.00000000E+00  0.00000000E+00  0.00000000E+00
  0.00000000E+00  0.00000000E+00  0.00000000E+00
  0.00000000E+00  0.00000000E+00  0.00000000E+00
  0.00000000E+00  0.00000000E+00  0.00000000E+00
