Ti13, -78.49501898 <s> Cu </s>
  1.00000000000000
    19.82959350718158     0.00000000000000     0.00000000000000
     0.00000000000000    19.82959350718158     0.00000000000000
     0.00000000000000     0.00000000000000    19.82959350718158
  Cu    
  13    
Direct
     0.61588560736518      0.48855063402706      0.49554511003204   
     0.61733358131272      0.42368232058982      0.41246139281926   
     0.54166781553064      0.50759222524937      0.41261288475343   
     0.49569488958222      0.52114853349817      0.52196074746850   
     0.52342685096730      0.41394966604186      0.48546361292362   
     0.49681674330144      0.40441034949657      0.37325542228609   
     0.42720188761025      0.48364488161833      0.43199864914665   
     0.42297650406129      0.35952039261256      0.45236387865902   
     0.42314946685522      0.43592586207214      0.54835411412192   
     0.36071175140766      0.53034716835034      0.51650469189782   
     0.36345238714820      0.41103494617371      0.36841930659430   
     0.31184241810514      0.50884515020403      0.41799055997560   
     0.33161687255914      0.42217590865917      0.48153936549036   
