Ag12, -929.0 <s> Ag </s>                
   1.00000000000000     
    18.9402620000000006    0.0000000000000000    0.0000000000000000
     0.0000000000000000   18.9402620000000006    0.0000000000000000
     0.0000000000000000    0.0000000000000000   18.9402620000000006
   Ag
    12
Direct
  0.4951235826056052  0.6800957385462432  0.5000000000000000
  0.5484500682164303  0.5573485878658585  0.5745070339072118
  0.4359606304165632  0.6350773582046010  0.6238278983031093
  0.5640393695834366  0.3649226417953990  0.3761721016968908
  0.4359606304165632  0.6350773582046010  0.3761721016968908
  0.4515499317835695  0.4426514121341414  0.4254929660927881
  0.5048764173943953  0.3199042614537568  0.5000000000000000
  0.5640393695834366  0.3649226417953990  0.6238278983031093
  0.4109004198116929  0.5594748291277557  0.5000000000000000
  0.4515499317835695  0.4426514121341414  0.5745070339072118
  0.5484500682164303  0.5573485878658585  0.4254929660927881
  0.5890995801883075  0.4405251708722444  0.5000000000000000
 
  0.00000000E+00  0.00000000E+00  0.00000000E+00
  0.00000000E+00  0.00000000E+00  0.00000000E+00
  0.00000000E+00  0.00000000E+00  0.00000000E+00
  0.00000000E+00  0.00000000E+00  0.00000000E+00
  0.00000000E+00  0.00000000E+00  0.00000000E+00
  0.00000000E+00  0.00000000E+00  0.00000000E+00
  0.00000000E+00  0.00000000E+00  0.00000000E+00
  0.00000000E+00  0.00000000E+00  0.00000000E+00
  0.00000000E+00  0.00000000E+00  0.00000000E+00
  0.00000000E+00  0.00000000E+00  0.00000000E+00
  0.00000000E+00  0.00000000E+00  0.00000000E+00
  0.00000000E+00  0.00000000E+00  0.00000000E+00
