Al17, -49.71209725 <s> Ag </s>          
   1.00000000000000     
    19.6858651835609884    0.0000000000000000    0.0000000000000000
     0.0000000000000000   19.6858651835609884    0.0000000000000000
     0.0000000000000000    0.0000000000000000   19.6858651835609884
   Ag
    17
Direct
  0.5804249544159501  0.4527094463834063  0.3784281017013996
  0.5982026067202868  0.4242002333638347  0.5164351400838445
  0.5697675442163033  0.5966229918629860  0.3755860268705878
  0.6283236856876838  0.5674540120808188  0.5124735323034568
  0.4911461076358959  0.3491153662499760  0.5734505352323832
  0.4624122267750827  0.3904350494433996  0.4425903726919277
  0.4562784761890635  0.5032730894095834  0.3366789631880013
  0.5436793345248708  0.6812552842612646  0.4865143811430805
  0.5016364256976938  0.5225758298875525  0.4731133537497149
  0.3649061317366546  0.5019649526314969  0.4430035408001495
  0.6031626755187521  0.3925693543873480  0.6516138246119325
  0.4134304325108417  0.4685422542929746  0.5725964397413401
  0.4684914715109675  0.4252222658838981  0.6925976357179786
  0.4292766156495595  0.6291602123521634  0.4195503661366550
  0.5463133273356642  0.5169679318425614  0.6196513573472183
  0.5792326998456320  0.6549322955676004  0.6184634417516996
  0.4495225681147089  0.6105043786470951  0.5690970865342283
 
  0.00000000E+00  0.00000000E+00  0.00000000E+00
  0.00000000E+00  0.00000000E+00  0.00000000E+00
  0.00000000E+00  0.00000000E+00  0.00000000E+00
  0.00000000E+00  0.00000000E+00  0.00000000E+00
  0.00000000E+00  0.00000000E+00  0.00000000E+00
  0.00000000E+00  0.00000000E+00  0.00000000E+00
  0.00000000E+00  0.00000000E+00  0.00000000E+00
  0.00000000E+00  0.00000000E+00  0.00000000E+00
  0.00000000E+00  0.00000000E+00  0.00000000E+00
  0.00000000E+00  0.00000000E+00  0.00000000E+00
  0.00000000E+00  0.00000000E+00  0.00000000E+00
  0.00000000E+00  0.00000000E+00  0.00000000E+00
  0.00000000E+00  0.00000000E+00  0.00000000E+00
  0.00000000E+00  0.00000000E+00  0.00000000E+00
  0.00000000E+00  0.00000000E+00  0.00000000E+00
  0.00000000E+00  0.00000000E+00  0.00000000E+00
  0.00000000E+00  0.00000000E+00  0.00000000E+00
