Rh13, -737.0 <s> Cu </s>
  1.00000000000000
    17.92087900000000     0.00000000000000     0.00000000000000
     0.00000000000000    17.92087900000000     0.00000000000000
     0.00000000000000     0.00000000000000    17.92087900000000
  Cu    
  13    
Direct
     0.41600716460207      0.43600145905869      0.37317680814353   
     0.42393749010430      0.43741961153391      0.49898271336285   
     0.43012108803060      0.43641107144369      0.62524812843676   
     0.54308506012063      0.43596942351327      0.36606201910837   
     0.55040476072837      0.43772041898258      0.49083878243113   
     0.55801004136270      0.43556118106936      0.62002575494312   
     0.41609489352167      0.56392866536113      0.37308712969237   
     0.42401937042926      0.56267669727777      0.49889667052458   
     0.43020475981699      0.56386180169808      0.62515997799682   
     0.54317220944978      0.56378814101963      0.36596680820283   
     0.55048611415292      0.56219505760562      0.49074662754801   
     0.55809445080967      0.56453375780124      0.61993223011892   
     0.65636259064945      0.49993271052424      0.55187634949072   
