Ag10, -17.78580638 <s> Ni </s>          
   1.00000000000000     
    19.5023523735611590    0.0000000000000000    0.0000000000000000
     0.0000000000000000   19.5023523735611590    0.0000000000000000
     0.0000000000000000    0.0000000000000000   19.5023523735611590
   Ni
    10
Direct
  0.4223285870257729  0.4427372928078886  0.3611777821423410
  0.3972489786415491  0.5522036200014036  0.3992922438724783
  0.4748026195647178  0.4920796539611544  0.4618804118302858
  0.5197175635521346  0.3949144149776175  0.4120629581081659
  0.5101409646827291  0.5223034801357895  0.3554823840520269
  0.3999510566205135  0.3750746402127776  0.4567808806419535
  0.4857387793032401  0.2987139109187347  0.4698791516610946
  0.3240762401482213  0.4598532560724283  0.4262154782265872
  0.3824312591487825  0.4683445932051784  0.5296165884140928
  0.4893633615752193  0.3995745479699208  0.5334115313138533
 
  0.00000000E+00  0.00000000E+00  0.00000000E+00
  0.00000000E+00  0.00000000E+00  0.00000000E+00
  0.00000000E+00  0.00000000E+00  0.00000000E+00
  0.00000000E+00  0.00000000E+00  0.00000000E+00
  0.00000000E+00  0.00000000E+00  0.00000000E+00
  0.00000000E+00  0.00000000E+00  0.00000000E+00
  0.00000000E+00  0.00000000E+00  0.00000000E+00
  0.00000000E+00  0.00000000E+00  0.00000000E+00
  0.00000000E+00  0.00000000E+00  0.00000000E+00
  0.00000000E+00  0.00000000E+00  0.00000000E+00
