Pt7, -27.08566642 <s> Ag </s>           
   1.00000000000000     
    18.4351848538913003    0.0000000000000000    0.0000000000000000
     0.0000000000000000   18.4351848538913003    0.0000000000000000
     0.0000000000000000    0.0000000000000000   18.4351848538913003
   Ag
     7
Direct
  0.5583156185650134  0.3852174427432472  0.5654791018247765
  0.4774150923151477  0.5110433547264626  0.5660297211567012
  0.5788023214612672  0.4839778903845813  0.4542652913051500
  0.6217869736363320  0.5179708026186782  0.5989091208626723
  0.5854387135223864  0.6258230602774905  0.5005822826122110
  0.3458377993564722  0.5289607629193930  0.5095344216246026
  0.4616778965274339  0.5794834903831738  0.4324945009399250
 
  0.00000000E+00  0.00000000E+00  0.00000000E+00
  0.00000000E+00  0.00000000E+00  0.00000000E+00
  0.00000000E+00  0.00000000E+00  0.00000000E+00
  0.00000000E+00  0.00000000E+00  0.00000000E+00
  0.00000000E+00  0.00000000E+00  0.00000000E+00
  0.00000000E+00  0.00000000E+00  0.00000000E+00
  0.00000000E+00  0.00000000E+00  0.00000000E+00
