Pt11, -46.93263774 <s> Ni </s>          
   1.00000000000000     
    18.6987967317758290    0.0000000000000000    0.0000000000000000
     0.0000000000000000   18.6987967317758290    0.0000000000000000
     0.0000000000000000    0.0000000000000000   18.6987967317758290
   Ni
    11
Direct
  0.5365390663011160  0.3696813417864753  0.4798882939878916
  0.4821218475242869  0.4457272708196395  0.3906143421456786
  0.4181638237934110  0.3488208137664105  0.4485002808405202
  0.4518485340374799  0.3561489572224629  0.5706364799375885
  0.4149251718064240  0.5363205561504222  0.3282552609888865
  0.4731204928046913  0.4691413441530345  0.5126102432288827
  0.4911082603670321  0.5632623304730827  0.4235054425554082
  0.3575714904240615  0.4251438435883624  0.5187006099661510
  0.3754449869306571  0.5258095415998773  0.4488028937392989
  0.3601742285924325  0.4313737745470766  0.3759372759580726
  0.5837142744244032  0.4839846471849126  0.4547742226064080
 
  0.00000000E+00  0.00000000E+00  0.00000000E+00
  0.00000000E+00  0.00000000E+00  0.00000000E+00
  0.00000000E+00  0.00000000E+00  0.00000000E+00
  0.00000000E+00  0.00000000E+00  0.00000000E+00
  0.00000000E+00  0.00000000E+00  0.00000000E+00
  0.00000000E+00  0.00000000E+00  0.00000000E+00
  0.00000000E+00  0.00000000E+00  0.00000000E+00
  0.00000000E+00  0.00000000E+00  0.00000000E+00
  0.00000000E+00  0.00000000E+00  0.00000000E+00
  0.00000000E+00  0.00000000E+00  0.00000000E+00
  0.00000000E+00  0.00000000E+00  0.00000000E+00
