Ti50, -335.49158644 <s> Ag </s>
  1.00000000000000
    23.14857031437269     0.00000000000000     0.00000000000000
     0.00000000000000    23.14857031437269     0.00000000000000
     0.00000000000000     0.00000000000000    23.14857031437269
  Ag    
  50    
Direct
     0.67635791386934      0.59793374609459      0.62212016773078   
     0.57257884925276      0.68962361748493      0.58966686595717   
     0.72161898102707      0.55775231894574      0.48688113654023   
     0.55286883952275      0.59151869195428      0.65019242251181   
     0.48052659543560      0.73272091957897      0.53457269518439   
     0.68454872848004      0.48323617648422      0.56780296360389   
     0.56395915742736      0.68741632167474      0.46584842096650   
     0.62193790308510      0.50215355211731      0.65262337287309   
     0.45831372149085      0.66767417841546      0.63269347340788   
     0.61475048704120      0.58804904631218      0.53739928259030   
     0.62843713504822      0.49284738663004      0.45951377221438   
     0.50284999451018      0.61818754795616      0.53492776495410   
     0.35113056662876      0.62704376720583      0.63421016202760   
     0.42032435940275      0.56043017504401      0.71140668399217   
     0.44756126634276      0.67837367810683      0.43865535019004   
     0.37553639095278      0.68468727806537      0.53911316971192   
     0.51677981759712      0.46476510323808      0.67023178471482   
     0.53211754278106      0.56989806715860      0.43131167828338   
     0.59497216246392      0.39410292285689      0.60261013543722   
     0.73213084140422      0.44238298029900      0.46489615021636   
     0.52911755042934      0.63147621239177      0.34893049741987   
     0.64342348253243      0.60242280886968      0.40561041532675   
     0.71073899656202      0.51163894911730      0.37845360696615   
     0.44396837103464      0.54091013357755      0.61682406506176   
     0.54953054395093      0.49282717526453      0.55268602382374   
     0.39804592137527      0.56983986622222      0.51675024662471   
     0.39703466955014      0.43828227919445      0.66117343006407   
     0.59881858001293      0.51723949907922      0.33998873894252   
     0.32392980467794      0.52587879149977      0.64115299116461   
     0.45398835333031      0.43501241682229      0.57178887648068   
     0.63979602918062      0.37393039580853      0.49229716690665   
     0.49177146850666      0.33376019253267      0.61814983488428   
     0.33721022001509      0.63330950158564      0.44163719651158   
     0.65219324957418      0.40719208385239      0.38068371170227   
     0.29132711156387      0.58194791991577      0.53956028565827   
     0.44859618646814      0.48355242185221      0.46202769706848   
     0.52039125644882      0.38114920028812      0.50451871300086   
     0.53769688011057      0.43333288782706      0.40533636977417   
     0.57301775221780      0.28978018381398      0.54324063397683   
     0.41622308690435      0.57069884985848      0.38670975933926   
     0.49243702542684      0.51396668528009      0.32164976471137   
     0.34036919853627      0.46163668105936      0.54808698257540   
     0.38283905292357      0.34643813075942      0.57415068011250   
     0.33212901520242      0.51207471755502      0.44143149371172   
     0.56361442929265      0.31131605276733      0.42260888182691   
     0.53053425400236      0.39789450408016      0.31231219540812   
     0.38623286910084      0.38156734827620      0.46662424040260   
     0.41916307887282      0.44001261564578      0.35568683166229   
     0.46051976650025      0.28685172042452      0.50629353680773   
     0.46029049230903      0.33834870014535      0.39595916359459   
