Pt10, -41.6542407 <s> Ag </s>           
   1.00000000000000     
    19.1529689057190389    0.0000000000000000    0.0000000000000000
     0.0000000000000000   19.1529689057190389    0.0000000000000000
     0.0000000000000000    0.0000000000000000   19.1529689057190389
   Ag
    10
Direct
  0.5367048283219624  0.5265738228999698  0.4696724616255873
  0.5791641052577732  0.5899050514440147  0.5984364627334392
  0.5087236039025788  0.7080932470401177  0.5736243301206846
  0.4363649443424646  0.5873785677501621  0.5565922095856591
  0.4989566917964186  0.4662134486115113  0.3477388721994437
  0.6883627802154649  0.5089434499669275  0.6310379198198991
  0.3968323334593535  0.5336145178365458  0.4274623914695890
  0.4342691713068576  0.4440685785837204  0.5382721247456939
  0.5705395335254203  0.4434303504874321  0.5870383527379429
  0.5416616331866573  0.3813993783477947  0.4592417481731239
 
  0.00000000E+00  0.00000000E+00  0.00000000E+00
  0.00000000E+00  0.00000000E+00  0.00000000E+00
  0.00000000E+00  0.00000000E+00  0.00000000E+00
  0.00000000E+00  0.00000000E+00  0.00000000E+00
  0.00000000E+00  0.00000000E+00  0.00000000E+00
  0.00000000E+00  0.00000000E+00  0.00000000E+00
  0.00000000E+00  0.00000000E+00  0.00000000E+00
  0.00000000E+00  0.00000000E+00  0.00000000E+00
  0.00000000E+00  0.00000000E+00  0.00000000E+00
  0.00000000E+00  0.00000000E+00  0.00000000E+00
