Pt13, -57.17035892 <s> Ag </s>          
   1.00000000000000     
    18.7464913711824899    0.0000000000000000    0.0000000000000000
     0.0000000000000000   18.7464913711824899    0.0000000000000000
     0.0000000000000000    0.0000000000000000   18.7464913711824899
   Ag
    13
Direct
  0.5122107526033325  0.3813205120782504  0.4306381590931277
  0.4002640563907778  0.4614048067026599  0.3768396166078518
  0.6460456408218195  0.4327884203889992  0.4722650249200024
  0.4184231242873508  0.5134381110178988  0.5151471398517947
  0.4012893877918435  0.6078209796281818  0.4050616530363338
  0.4189856822709602  0.4545567174886281  0.6490439941217456
  0.5407147648970108  0.4423040437761095  0.5683764890795229
  0.6816218374237594  0.4575758637419885  0.6152746056755596
  0.5338063061716971  0.5274015189574303  0.4249312117446731
  0.4997585966395474  0.6512358422969519  0.5052595541054645
  0.6222453313382281  0.5700933182102175  0.5428252951626182
  0.5028508089127562  0.5726137275479644  0.6325843926401976
  0.5834835525101114  0.6912279785429769  0.6231775286854601
 
  0.00000000E+00  0.00000000E+00  0.00000000E+00
  0.00000000E+00  0.00000000E+00  0.00000000E+00
  0.00000000E+00  0.00000000E+00  0.00000000E+00
  0.00000000E+00  0.00000000E+00  0.00000000E+00
  0.00000000E+00  0.00000000E+00  0.00000000E+00
  0.00000000E+00  0.00000000E+00  0.00000000E+00
  0.00000000E+00  0.00000000E+00  0.00000000E+00
  0.00000000E+00  0.00000000E+00  0.00000000E+00
  0.00000000E+00  0.00000000E+00  0.00000000E+00
  0.00000000E+00  0.00000000E+00  0.00000000E+00
  0.00000000E+00  0.00000000E+00  0.00000000E+00
  0.00000000E+00  0.00000000E+00  0.00000000E+00
  0.00000000E+00  0.00000000E+00  0.00000000E+00
