Pt5, -17.44553204 <s> Ag </s>           
   1.00000000000000     
    18.4566163916501296    0.0000000000000000    0.0000000000000000
     0.0000000000000000   18.4566163916501296    0.0000000000000000
     0.0000000000000000    0.0000000000000000   18.4566163916501296
   Ag
     5
Direct
  0.6640233331935049  0.5692634536092065  0.5410154408961755
  0.5528074386720020  0.4823067717700920  0.5061840716775882
  0.4418114703162144  0.3944462826364519  0.4737502511092417
  0.5272290335088085  0.6217994134532278  0.5530364552921045
  0.4131800020792167  0.5298607707667949  0.5235086932693335
 
  0.00000000E+00  0.00000000E+00  0.00000000E+00
  0.00000000E+00  0.00000000E+00  0.00000000E+00
  0.00000000E+00  0.00000000E+00  0.00000000E+00
  0.00000000E+00  0.00000000E+00  0.00000000E+00
  0.00000000E+00  0.00000000E+00  0.00000000E+00
