Pt5, -17.44553204 <s> Ag </s>
  1.00000000000000
    18.45661639165013     0.00000000000000     0.00000000000000
     0.00000000000000    18.45661639165013     0.00000000000000
     0.00000000000000     0.00000000000000    18.45661639165013
  Ag    
  5     
Direct
     0.62366598893213      0.54665869490766      0.53401668881293   
     0.51300228415731      0.47086928740565      0.50509341168641   
     0.48776786109354      0.34638256249305      0.47286016188547   
     0.54271731976065      0.65529950373713      0.55779009321045   
     0.43189782382612      0.57846664369228      0.52773455664918   
