Ag12, -930.0 <s> Ag </s>                
   1.00000000000000     
    19.9599820000000001    0.0000000000000000    0.0000000000000000
     0.0000000000000000   19.9599820000000001    0.0000000000000000
     0.0000000000000000    0.0000000000000000   19.9599820000000001
   Ag
    12
Direct
  0.5081085719077074  0.6715879799519801  0.5000000000000000
  0.5495505607944258  0.5511989526897589  0.5709706145645657
  0.4492115624111488  0.6334764265844999  0.6174338132538317
  0.5507884375888512  0.3665235734155000  0.3825661867461683
  0.4492115624111488  0.6334764265844999  0.3825661867461683
  0.4504494392055742  0.4488010473102411  0.4290293854354347
  0.4918914280922926  0.3284120200480200  0.5000000000000000
  0.5507884375888512  0.3665235734155000  0.6174338132538317
  0.4206043288037719  0.5624413438625832  0.5000000000000000
  0.4504494392055742  0.4488010473102411  0.5709706145645657
  0.5495505607944258  0.5511989526897589  0.4290293854354347
  0.5793956711962283  0.4375586561374170  0.5000000000000000
 
  0.00000000E+00  0.00000000E+00  0.00000000E+00
  0.00000000E+00  0.00000000E+00  0.00000000E+00
  0.00000000E+00  0.00000000E+00  0.00000000E+00
  0.00000000E+00  0.00000000E+00  0.00000000E+00
  0.00000000E+00  0.00000000E+00  0.00000000E+00
  0.00000000E+00  0.00000000E+00  0.00000000E+00
  0.00000000E+00  0.00000000E+00  0.00000000E+00
  0.00000000E+00  0.00000000E+00  0.00000000E+00
  0.00000000E+00  0.00000000E+00  0.00000000E+00
  0.00000000E+00  0.00000000E+00  0.00000000E+00
  0.00000000E+00  0.00000000E+00  0.00000000E+00
  0.00000000E+00  0.00000000E+00  0.00000000E+00
