Ti6, -28.91687927 <s> Ag </s>
  1.00000000000000
    17.02110935309667     0.00000000000000     0.00000000000000
     0.00000000000000    17.02110935309667     0.00000000000000
     0.00000000000000     0.00000000000000    17.02110935309667
  Ag    
  6     
Direct
     0.58559740962422      0.40498170307665      0.36341267526824   
     0.58958059620193      0.57744270784206      0.60367451740174   
     0.53807853840486      0.43961770443362      0.46906024185876   
     0.46405199873054      0.60574188247886      0.56799622695597   
     0.43292594756755      0.55372555592348      0.45410383236357   
     0.43130054321356      0.46002003170920      0.58328248625235   
