Ti51, -342.73001586 <s> Ag </s>
  1.00000000000000
    23.32996389972616     0.00000000000000     0.00000000000000
     0.00000000000000    23.32996389972616     0.00000000000000
     0.00000000000000     0.00000000000000    23.32996389972616
  Ag    
  51    
Direct
     0.67468878274864      0.59915134329151      0.35510788250845   
     0.58267434957576      0.65498743295445      0.31472542796003   
     0.60428738858263      0.54433706733619      0.28974997997400   
     0.61648630648764      0.68170678144319      0.41984074357573   
     0.67310471003371      0.59178137418047      0.46974982337700   
     0.63858206883953      0.48199603694118      0.39555383117882   
     0.71742321162868      0.47738105010212      0.48491877200615   
     0.49102359860418      0.58427277697716      0.30601862340490   
     0.57522493527530      0.38172174835158      0.37710239135520   
     0.57069284108441      0.57250267151880      0.39595219788032   
     0.62854586274036      0.39389825466799      0.48029226390850   
     0.50209751605403      0.67505183742010      0.39853688016427   
     0.52110987216897      0.47575958961168      0.33083131556076   
     0.71029909683622      0.54515376128052      0.57444348872937   
     0.62319415087436      0.62256377762747      0.59088273382511   
     0.61483767630239      0.51320802968237      0.51164666673671   
     0.67311218366337      0.43400031736107      0.58852640460285   
     0.53636155436912      0.71314840004478      0.51550911158075   
     0.52990146084333      0.46067707066836      0.44973764693259   
     0.45168331384214      0.54967205462198      0.42058425436097   
     0.51648946028606      0.34391503591794      0.47022176046175   
     0.45855046816001      0.38286867885955      0.37086276972122   
     0.40610054584643      0.48457788480946      0.32853885013341   
     0.39144821883931      0.61359091775564      0.37531929012612   
     0.54941044966944      0.61396070536475      0.49939624053859   
     0.32757674413230      0.51642405828470      0.38964081829668   
     0.33512240133557      0.39833108420480      0.39248866822757   
     0.65345361510709      0.52675211910296      0.66992881728713   
     0.56022690500635      0.52409916540473      0.61310893595559   
     0.40460035040695      0.44730031672641      0.46805018372114   
     0.46501083001249      0.53620507827652      0.52982519805200   
     0.43428616826066      0.64810845284476      0.49500378532495   
     0.40582706045566      0.32850492217096      0.45404958675028   
     0.54793359585005      0.42212073874024      0.56353780171637   
     0.60869992981995      0.41696586694829      0.67533042971772   
     0.58851382391721      0.33629264866524      0.58918935926779   
     0.49339630620741      0.62744560957901      0.60251097813133   
     0.34745675848625      0.56872290570281      0.48684961755025   
     0.56653968305425      0.60249070087687      0.69342526302558   
     0.28441923117631      0.46526667953710      0.47291427400737   
     0.43714442801810      0.37905243318618      0.56191625933765   
     0.32807543178685      0.37258230836643      0.51327811082175   
     0.44704036025929      0.48230958035258      0.62645771263562   
     0.54193936140479      0.49189484528915      0.72664833250229   
     0.38135926311657      0.58819926623882      0.60388837164241   
     0.49887895835776      0.38675321590623      0.67315156942880   
     0.34330225665221      0.47360109823625      0.57327956618213   
     0.45499349124411      0.57163693258428      0.70434114839019   
     0.37679297532069      0.40012537969989      0.66131654211721   
     0.43479423169662      0.46197744297319      0.74005990349482   
     0.35225666872708      0.51146168838154      0.68367767521767   
