Pt10, -41.75867402 <s> Ag </s>          
   1.00000000000000     
    18.6050189697429609    0.0000000000000000    0.0000000000000000
     0.0000000000000000   18.6050189697429609    0.0000000000000000
     0.0000000000000000    0.0000000000000000   18.6050189697429609
   Ag
    10
Direct
  0.6048160073368793  0.5224130073601333  0.4708075193320190
  0.6928672345571920  0.4931846039936933  0.5901372220805956
  0.4782687150310809  0.5332321439333104  0.3902012963456145
  0.5056436204265187  0.6295973755245695  0.4995101475747080
  0.6096758473362829  0.6093113663390822  0.6058532261968631
  0.5443510930305773  0.4675055264834146  0.5954339177635958
  0.5040209663381597  0.4057208554331355  0.4668616061805221
  0.4636154114291977  0.5853833253830566  0.6382836587940457
  0.4134245455091320  0.5042880737985368  0.5259967650535978
  0.3658054209912157  0.4379168843698495  0.4014986475530682
 
  0.00000000E+00  0.00000000E+00  0.00000000E+00
  0.00000000E+00  0.00000000E+00  0.00000000E+00
  0.00000000E+00  0.00000000E+00  0.00000000E+00
  0.00000000E+00  0.00000000E+00  0.00000000E+00
  0.00000000E+00  0.00000000E+00  0.00000000E+00
  0.00000000E+00  0.00000000E+00  0.00000000E+00
  0.00000000E+00  0.00000000E+00  0.00000000E+00
  0.00000000E+00  0.00000000E+00  0.00000000E+00
  0.00000000E+00  0.00000000E+00  0.00000000E+00
  0.00000000E+00  0.00000000E+00  0.00000000E+00
