Al42, -133.63605573 <s> Ag </s>         
   1.00000000000000     
    23.2880152756283607    0.0000000000000000    0.0000000000000000
     0.0000000000000000   23.2880152756283607    0.0000000000000000
     0.0000000000000000    0.0000000000000000   23.2880152756283607
   Ag
    42
Direct
  0.3669464568267600  0.5898167192247685  0.6856152857154011
  0.4428229842463228  0.5089035817948474  0.7315705628844593
  0.4022734221315622  0.6694214304440678  0.6001745157192960
  0.3232792127389728  0.5783328181075045  0.5733704856232350
  0.4819960374669024  0.5900009448893265  0.6475538025887779
  0.5570242201776315  0.5061248084744995  0.6920164735203157
  0.3956607489903980  0.4912831334729024  0.6201302157683116
  0.4749637207995910  0.4123624123110426  0.6647851727603519
  0.3621627319447921  0.6565054243216029  0.4856074075776813
  0.2834996711848668  0.5669429802325098  0.4575063603272363
  0.5966253847462265  0.5847995812046088  0.6070005655052663
  0.5188416971970147  0.6670032057655716  0.5567118181538131
  0.4378196450202994  0.5753701353555246  0.5304211332011884
  0.5908247144279793  0.3893781788577497  0.6896739874225568
  0.3534396933581429  0.4799195011662112  0.5049514655194032
  0.5135035667228389  0.4908861875685199  0.5772138082909295
  0.4316730057795680  0.3979360052897699  0.5499295077077914
  0.4761276193175215  0.6539969685171760  0.4383101187522346
  0.5617302283083876  0.7376959170589623  0.4657408608126444
  0.3948279520585868  0.5651821358052276  0.4098543407367047
  0.6330153984874832  0.4674815838330386  0.6068917907062142
  0.6634839372456993  0.3503947284777964  0.6014501886466073
  0.4694761731946387  0.4791588621461368  0.4615535298455421
  0.5459098942329539  0.3685633960990281  0.5767280024839775
  0.6703090703533775  0.5430828830148070  0.5185849369852605
  0.5854705068157057  0.4497350046361442  0.4872249167657905
  0.6337614544320735  0.6579885893996864  0.5166031599148891
  0.3888303306853436  0.3883447440289988  0.4349230408674332
  0.3155297124651201  0.4736410749033519  0.3889127875818970
  0.5528332219116059  0.5676789944293924  0.4881977225168272
  0.4268633379072795  0.4686687265444134  0.3437368702653157
  0.5044827665449042  0.3578404114172397  0.4585634038347701
  0.5887966381494512  0.6448396655900411  0.3965245345588694
  0.5080137047895776  0.5571011227482898  0.3680617167356684
  0.7013802846009033  0.4237237423326928  0.5137049180488783
  0.7349283445925897  0.5006870114103273  0.4244703054695614
  0.6217176814841127  0.3327787264641183  0.4882044152519905
  0.5417577048131785  0.4378458994158708  0.3682352763354991
  0.4574587876470981  0.3536594943626878  0.3443114633587219
  0.6567352246353438  0.4103625209387018  0.3994412396559481
  0.7012422188382151  0.6161074970989369  0.4248533167550373
  0.6224739085561548  0.5286253221791181  0.3912082242150304
 
  0.00000000E+00  0.00000000E+00  0.00000000E+00
  0.00000000E+00  0.00000000E+00  0.00000000E+00
  0.00000000E+00  0.00000000E+00  0.00000000E+00
  0.00000000E+00  0.00000000E+00  0.00000000E+00
  0.00000000E+00  0.00000000E+00  0.00000000E+00
  0.00000000E+00  0.00000000E+00  0.00000000E+00
  0.00000000E+00  0.00000000E+00  0.00000000E+00
  0.00000000E+00  0.00000000E+00  0.00000000E+00
  0.00000000E+00  0.00000000E+00  0.00000000E+00
  0.00000000E+00  0.00000000E+00  0.00000000E+00
  0.00000000E+00  0.00000000E+00  0.00000000E+00
  0.00000000E+00  0.00000000E+00  0.00000000E+00
  0.00000000E+00  0.00000000E+00  0.00000000E+00
  0.00000000E+00  0.00000000E+00  0.00000000E+00
  0.00000000E+00  0.00000000E+00  0.00000000E+00
  0.00000000E+00  0.00000000E+00  0.00000000E+00
  0.00000000E+00  0.00000000E+00  0.00000000E+00
  0.00000000E+00  0.00000000E+00  0.00000000E+00
  0.00000000E+00  0.00000000E+00  0.00000000E+00
  0.00000000E+00  0.00000000E+00  0.00000000E+00
  0.00000000E+00  0.00000000E+00  0.00000000E+00
  0.00000000E+00  0.00000000E+00  0.00000000E+00
  0.00000000E+00  0.00000000E+00  0.00000000E+00
  0.00000000E+00  0.00000000E+00  0.00000000E+00
  0.00000000E+00  0.00000000E+00  0.00000000E+00
  0.00000000E+00  0.00000000E+00  0.00000000E+00
  0.00000000E+00  0.00000000E+00  0.00000000E+00
  0.00000000E+00  0.00000000E+00  0.00000000E+00
  0.00000000E+00  0.00000000E+00  0.00000000E+00
  0.00000000E+00  0.00000000E+00  0.00000000E+00
  0.00000000E+00  0.00000000E+00  0.00000000E+00
  0.00000000E+00  0.00000000E+00  0.00000000E+00
  0.00000000E+00  0.00000000E+00  0.00000000E+00
  0.00000000E+00  0.00000000E+00  0.00000000E+00
  0.00000000E+00  0.00000000E+00  0.00000000E+00
  0.00000000E+00  0.00000000E+00  0.00000000E+00
  0.00000000E+00  0.00000000E+00  0.00000000E+00
  0.00000000E+00  0.00000000E+00  0.00000000E+00
  0.00000000E+00  0.00000000E+00  0.00000000E+00
  0.00000000E+00  0.00000000E+00  0.00000000E+00
  0.00000000E+00  0.00000000E+00  0.00000000E+00
  0.00000000E+00  0.00000000E+00  0.00000000E+00
