Al37, -116.05949229 <s> Ag </s>         
   1.00000000000000     
    23.7366435715819009    0.0000000000000000    0.0000000000000000
     0.0000000000000000   23.7366435715819009    0.0000000000000000
     0.0000000000000000    0.0000000000000000   23.7366435715819009
   Ag
    37
Direct
  0.6947239153309801  0.3792496022597223  0.5479651487731481
  0.7668089488970172  0.4684567748381787  0.5604138864686611
  0.5986419044672351  0.3934419217499889  0.4843091224381212
  0.6764603896827482  0.4841648156661568  0.4815806595606465
  0.5134262232113338  0.4047207503616056  0.4057292711635291
  0.6232957769793157  0.4482764696095790  0.3827025532972577
  0.5361359894373283  0.4620559319152513  0.3026671227041884
  0.5856236256742202  0.3673315632474443  0.5970811324143080
  0.6554574544081132  0.4741940279971727  0.6030233201554729
  0.7113697021142351  0.5729077464912543  0.5472132984954888
  0.5350749420791507  0.4686931588188909  0.5733309997321737
  0.5986607500258275  0.5718865272424472  0.5704661537259118
  0.6277121607782749  0.6024481395549851  0.4621608256327775
  0.4905283183157062  0.3630069003096326  0.5200199292472883
  0.5572108762820513  0.5080777391408740  0.4640384123617245
  0.5803562606210724  0.5582681000197646  0.3594924528611689
  0.4268448992827333  0.4198854810972507  0.3289715586040057
  0.5105091207805812  0.4252848469782161  0.6791184043798015
  0.5743354648495376  0.5245649388208128  0.6746340303848338
  0.4661714401682178  0.5227089317257252  0.3756682443121547
  0.4239824125200143  0.4277783196609247  0.5986615670228941
  0.4465367043750635  0.4703432261069284  0.4871655167657740
  0.4043219600793667  0.3698559058694528  0.4362614618263532
  0.5096570971514216  0.6180570296045654  0.4339430309572698
  0.4803303510672807  0.5720994124122053  0.5410360390627017
  0.4570157259273027  0.5295817814642255  0.6538474982942212
  0.3579027392913586  0.4784269488087248  0.4046079214294245
  0.3392822219454207  0.4289319531810661  0.5158926741828351
  0.4773030679132890  0.7292656835946679  0.6046912204966092
  0.5524872914469285  0.6734229429675224  0.5312971854846303
  0.5245662300001788  0.6293843543862019  0.6445234291769176
  0.3943515323486818  0.5838150697553600  0.4477754896886934
  0.3665900833299541  0.5300294531422511  0.5738613769774786
  0.2898009822634853  0.5346172101551221  0.4839033536938767
  0.4347764496763697  0.6783388022515927  0.5075826322871400
  0.4083065280029824  0.6341501866524858  0.6192457467164721
  0.3275454982841002  0.6331114779653353  0.5326998832533002
 
  0.00000000E+00  0.00000000E+00  0.00000000E+00
  0.00000000E+00  0.00000000E+00  0.00000000E+00
  0.00000000E+00  0.00000000E+00  0.00000000E+00
  0.00000000E+00  0.00000000E+00  0.00000000E+00
  0.00000000E+00  0.00000000E+00  0.00000000E+00
  0.00000000E+00  0.00000000E+00  0.00000000E+00
  0.00000000E+00  0.00000000E+00  0.00000000E+00
  0.00000000E+00  0.00000000E+00  0.00000000E+00
  0.00000000E+00  0.00000000E+00  0.00000000E+00
  0.00000000E+00  0.00000000E+00  0.00000000E+00
  0.00000000E+00  0.00000000E+00  0.00000000E+00
  0.00000000E+00  0.00000000E+00  0.00000000E+00
  0.00000000E+00  0.00000000E+00  0.00000000E+00
  0.00000000E+00  0.00000000E+00  0.00000000E+00
  0.00000000E+00  0.00000000E+00  0.00000000E+00
  0.00000000E+00  0.00000000E+00  0.00000000E+00
  0.00000000E+00  0.00000000E+00  0.00000000E+00
  0.00000000E+00  0.00000000E+00  0.00000000E+00
  0.00000000E+00  0.00000000E+00  0.00000000E+00
  0.00000000E+00  0.00000000E+00  0.00000000E+00
  0.00000000E+00  0.00000000E+00  0.00000000E+00
  0.00000000E+00  0.00000000E+00  0.00000000E+00
  0.00000000E+00  0.00000000E+00  0.00000000E+00
  0.00000000E+00  0.00000000E+00  0.00000000E+00
  0.00000000E+00  0.00000000E+00  0.00000000E+00
  0.00000000E+00  0.00000000E+00  0.00000000E+00
  0.00000000E+00  0.00000000E+00  0.00000000E+00
  0.00000000E+00  0.00000000E+00  0.00000000E+00
  0.00000000E+00  0.00000000E+00  0.00000000E+00
  0.00000000E+00  0.00000000E+00  0.00000000E+00
  0.00000000E+00  0.00000000E+00  0.00000000E+00
  0.00000000E+00  0.00000000E+00  0.00000000E+00
  0.00000000E+00  0.00000000E+00  0.00000000E+00
  0.00000000E+00  0.00000000E+00  0.00000000E+00
  0.00000000E+00  0.00000000E+00  0.00000000E+00
  0.00000000E+00  0.00000000E+00  0.00000000E+00
  0.00000000E+00  0.00000000E+00  0.00000000E+00
