Al37, -116.05949229 <s> Ag </s>
  1.00000000000000
    23.73664357158190     0.00000000000000     0.00000000000000
     0.00000000000000    23.73664357158190     0.00000000000000
     0.00000000000000     0.00000000000000    23.73664357158190
  Ag    
  37    
Direct
     0.68643367978778      0.37974602366269      0.55400605824919   
     0.75686074163486      0.46868615526358      0.55715751737907   
     0.59412179710132      0.39604565794845      0.48858260025220   
     0.67417296663812      0.47945249763048      0.47375342954117   
     0.51406934158343      0.40730083933791      0.41210027363719   
     0.61888883861318      0.44702349672570      0.38224426651058   
     0.53671083829292      0.47193063027469      0.30428530472417   
     0.58108566986294      0.36096103931734      0.60172068434236   
     0.64932345903187      0.47538936781710      0.60768004062477   
     0.71084380436056      0.57043349005584      0.53691449293452   
     0.53629845897851      0.46708580726846      0.57308495730150   
     0.59811466293352      0.56889799226119      0.56489262983756   
     0.63273689059324      0.61211531112390      0.45678232997497   
     0.48976973055443      0.35729889721773      0.52770483549454   
     0.56079944025585      0.51492759980728      0.46504046559334   
     0.57725104397275      0.57322413491635      0.35781398999982   
     0.43229217468141      0.42588147732846      0.33465634716922   
     0.50612684478057      0.41620855753443      0.67830157837145   
     0.56932622509248      0.51901777587580      0.67597423936178   
     0.47238798717370      0.52633464615352      0.38597244464504   
     0.42120726800420      0.42037230452034      0.59981772842420   
     0.45209793435903      0.47093705863631      0.49184001303366   
     0.40875239803583      0.36671580102043      0.44477814594432   
     0.50447081941093      0.63357363175720      0.42427550983495   
     0.48230484538692      0.57783529907056      0.53813581668053   
     0.45586552185463      0.52549124801778      0.65218277581281   
     0.36473110389534      0.48013136228491      0.40985981087957   
     0.33931244675720      0.42456114855150      0.51890140742193   
     0.47748882454079      0.72272747979745      0.59941572397206   
     0.55351328714638      0.67106943355672      0.52561927588467   
     0.52568260294041      0.62293701816392      0.63915400656525   
     0.39976529313612      0.58135342552374      0.45494294757016   
     0.37819804493697      0.52745828641434      0.56564025153145   
     0.29258967410656      0.53078609651754      0.48591340249924   
     0.43392431645871      0.68398829112825      0.49903594856283   
     0.40877872898062      0.63019202778339      0.61756885865415   
     0.32780733313481      0.63274281555831      0.53183244481303   
