Al34, -106.66007995 <s> Ag </s>         
   1.00000000000000     
    22.3118398610556810    0.0000000000000000    0.0000000000000000
     0.0000000000000000   22.3118398610556810    0.0000000000000000
     0.0000000000000000    0.0000000000000000   22.3118398610556810
   Ag
    34
Direct
  0.5059028146547254  0.6585360326877192  0.6489082295131371
  0.4170086726085579  0.5828877711083947  0.6068443036238479
  0.3342577053235328  0.5041562310241994  0.5573964372548740
  0.5143948879191441  0.5446280137887006  0.7013812131103281
  0.4311673868011677  0.4654476300479010  0.6505157771416182
  0.3542660061407349  0.3847796003404692  0.5926371547793081
  0.2750717930019786  0.4076556540386566  0.5005050147438601
  0.6171546805149380  0.6526377582837183  0.5901212396390566
  0.5561882805285033  0.4403601842153099  0.6431633359570181
  0.6045642319697672  0.6379978645451855  0.7204495722436530
  0.4913492260684169  0.6621648381586469  0.5257216511753871
  0.4052704962447982  0.5814088258995382  0.4805360587896080
  0.4735635551398473  0.3586498463594750  0.5872295194102575
  0.3521109758905586  0.4756578829076208  0.4323903654524857
  0.6364725131291750  0.5412537327896001  0.6552014230912656
  0.4526794959592851  0.4667491462117023  0.5217399863915810
  0.5347493012122456  0.5533587939353061  0.5725030376974933
  0.6774809647639317  0.4423287843978166  0.5969425287714663
  0.3940489375342186  0.3618461945739567  0.4757561356257757
  0.5805654665955625  0.4508331764799941  0.5149741398060576
  0.5233046414923069  0.5412838374511716  0.4439222079462217
  0.5192307824655358  0.3520498083835671  0.4681040714628686
  0.4634894641569914  0.4320168692270993  0.3896077294463458
  0.5970976213479694  0.3429767952799521  0.5750741835130335
  0.4785910974240152  0.6547963371006464  0.4018267938403575
  0.4206340425083255  0.5473747653673157  0.3576386226738327
  0.6007044623418073  0.6439220920973238  0.4655293580075545
  0.6628204214408304  0.5517056701260693  0.5288367511472835
  0.5884676998336366  0.4242068481930064  0.3926947342743340
  0.5865263891505836  0.6278440040722744  0.3417037074413151
  0.6957088882918264  0.4458959884376668  0.4682984879589855
  0.6444208280222371  0.5384583437235143  0.4020135104577415
  0.5386309180070216  0.5134204234018140  0.3195889368314652
  0.4798021238100679  0.6220747822597257  0.2793074590119737
 
  0.00000000E+00  0.00000000E+00  0.00000000E+00
  0.00000000E+00  0.00000000E+00  0.00000000E+00
  0.00000000E+00  0.00000000E+00  0.00000000E+00
  0.00000000E+00  0.00000000E+00  0.00000000E+00
  0.00000000E+00  0.00000000E+00  0.00000000E+00
  0.00000000E+00  0.00000000E+00  0.00000000E+00
  0.00000000E+00  0.00000000E+00  0.00000000E+00
  0.00000000E+00  0.00000000E+00  0.00000000E+00
  0.00000000E+00  0.00000000E+00  0.00000000E+00
  0.00000000E+00  0.00000000E+00  0.00000000E+00
  0.00000000E+00  0.00000000E+00  0.00000000E+00
  0.00000000E+00  0.00000000E+00  0.00000000E+00
  0.00000000E+00  0.00000000E+00  0.00000000E+00
  0.00000000E+00  0.00000000E+00  0.00000000E+00
  0.00000000E+00  0.00000000E+00  0.00000000E+00
  0.00000000E+00  0.00000000E+00  0.00000000E+00
  0.00000000E+00  0.00000000E+00  0.00000000E+00
  0.00000000E+00  0.00000000E+00  0.00000000E+00
  0.00000000E+00  0.00000000E+00  0.00000000E+00
  0.00000000E+00  0.00000000E+00  0.00000000E+00
  0.00000000E+00  0.00000000E+00  0.00000000E+00
  0.00000000E+00  0.00000000E+00  0.00000000E+00
  0.00000000E+00  0.00000000E+00  0.00000000E+00
  0.00000000E+00  0.00000000E+00  0.00000000E+00
  0.00000000E+00  0.00000000E+00  0.00000000E+00
  0.00000000E+00  0.00000000E+00  0.00000000E+00
  0.00000000E+00  0.00000000E+00  0.00000000E+00
  0.00000000E+00  0.00000000E+00  0.00000000E+00
  0.00000000E+00  0.00000000E+00  0.00000000E+00
  0.00000000E+00  0.00000000E+00  0.00000000E+00
  0.00000000E+00  0.00000000E+00  0.00000000E+00
  0.00000000E+00  0.00000000E+00  0.00000000E+00
  0.00000000E+00  0.00000000E+00  0.00000000E+00
  0.00000000E+00  0.00000000E+00  0.00000000E+00
