Be11, -21.42449291 <s> Ni </s>          
   1.00000000000000     
    20.0836489687567799    0.0000000000000000    0.0000000000000000
     0.0000000000000000   20.0836489687567799    0.0000000000000000
     0.0000000000000000    0.0000000000000000   20.0836489687567799
   Ni
    11
Direct
  0.4440040867950690  0.5015823593433451  0.6858949832119803
  0.4399393998103518  0.5301170339221222  0.5374055764784909
  0.5623819301364525  0.4839242768208322  0.6037705767005703
  0.6208551438574645  0.5655521658706407  0.3883978762153372
  0.6738839099522064  0.5318809939449771  0.5151509021558921
  0.4813279306811790  0.5658000976629322  0.3971464667531359
  0.4988837655541401  0.6203200262470594  0.6406251729346495
  0.6416081464170177  0.6032798572139046  0.6334462623227560
  0.5554131048964299  0.6170006886270811  0.5108888982465788
  0.5544701856392650  0.4692901444273917  0.4638789260591574
  0.5656164007855593  0.5461610080393663  0.7381972107721900
 
  0.00000000E+00  0.00000000E+00  0.00000000E+00
  0.00000000E+00  0.00000000E+00  0.00000000E+00
  0.00000000E+00  0.00000000E+00  0.00000000E+00
  0.00000000E+00  0.00000000E+00  0.00000000E+00
  0.00000000E+00  0.00000000E+00  0.00000000E+00
  0.00000000E+00  0.00000000E+00  0.00000000E+00
  0.00000000E+00  0.00000000E+00  0.00000000E+00
  0.00000000E+00  0.00000000E+00  0.00000000E+00
  0.00000000E+00  0.00000000E+00  0.00000000E+00
  0.00000000E+00  0.00000000E+00  0.00000000E+00
  0.00000000E+00  0.00000000E+00  0.00000000E+00
