Ni12, -990.0 <s> Ni </s>                
   1.00000000000000     
    17.6011500000000005    0.0000000000000000    0.0000000000000000
     0.0000000000000000   17.6011500000000005    0.0000000000000000
     0.0000000000000000    0.0000000000000000   17.6011500000000005
   Ni
    12
Direct
  0.4945778743348409  0.3620370177953454  0.4994024097395215
  0.4368171290809165  0.5542032708033430  0.6101590325225148
  0.4260416381477445  0.4456343592970493  0.4167598918466419
  0.3921877037769970  0.5583991887660080  0.4816960948624345
  0.6137852243812498  0.4292524247771923  0.5342685576915119
  0.5605567463491260  0.4406510035269672  0.4096904792352153
  0.5775917708267259  0.5480615225205088  0.6040553279450188
  0.4973056656545529  0.5604113314704885  0.3935364982844267
  0.5059588173961894  0.6226997432507712  0.5149823548275274
  0.6099773852178685  0.5497459858839523  0.4714882162409233
  0.3846762726778387  0.4389157019779261  0.5463394466841529
  0.5005237721559208  0.4899884499304623  0.5176216901200968
 
  0.00000000E+00  0.00000000E+00  0.00000000E+00
  0.00000000E+00  0.00000000E+00  0.00000000E+00
  0.00000000E+00  0.00000000E+00  0.00000000E+00
  0.00000000E+00  0.00000000E+00  0.00000000E+00
  0.00000000E+00  0.00000000E+00  0.00000000E+00
  0.00000000E+00  0.00000000E+00  0.00000000E+00
  0.00000000E+00  0.00000000E+00  0.00000000E+00
  0.00000000E+00  0.00000000E+00  0.00000000E+00
  0.00000000E+00  0.00000000E+00  0.00000000E+00
  0.00000000E+00  0.00000000E+00  0.00000000E+00
  0.00000000E+00  0.00000000E+00  0.00000000E+00
  0.00000000E+00  0.00000000E+00  0.00000000E+00
