Ni12, -990.0 <s> Ni </s>                
   1.00000000000000     
    17.6011500000000005    0.0000000000000000    0.0000000000000000
     0.0000000000000000   17.6011500000000005    0.0000000000000000
     0.0000000000000000    0.0000000000000000   17.6011500000000005
   Ni
    12
Direct
  0.4960477331178366  0.3249391676675948  0.4893674603342876
  0.4165652941274463  0.5747003511408331  0.6340189885720632
  0.4086526291114866  0.4322008187772493  0.3981440853833129
  0.3674599083221997  0.5721478299046495  0.4770204759503567
  0.6462772921513071  0.4106224486885990  0.5345566580641008
  0.5742676248943104  0.4265998006445537  0.3883979421616123
  0.6007667478768475  0.5696740896477019  0.6257879216000546
  0.4971764639810265  0.5700077291738302  0.3774775739552693
  0.5079524211992115  0.6511696760925688  0.5193371953008903
  0.6354208906794363  0.5607772920349794  0.4655638394956734
  0.3483506861191206  0.4288689199746682  0.5517944183440805
  0.5010623084197500  0.4782918762527861  0.5385334408382844
 
  0.00000000E+00  0.00000000E+00  0.00000000E+00
  0.00000000E+00  0.00000000E+00  0.00000000E+00
  0.00000000E+00  0.00000000E+00  0.00000000E+00
  0.00000000E+00  0.00000000E+00  0.00000000E+00
  0.00000000E+00  0.00000000E+00  0.00000000E+00
  0.00000000E+00  0.00000000E+00  0.00000000E+00
  0.00000000E+00  0.00000000E+00  0.00000000E+00
  0.00000000E+00  0.00000000E+00  0.00000000E+00
  0.00000000E+00  0.00000000E+00  0.00000000E+00
  0.00000000E+00  0.00000000E+00  0.00000000E+00
  0.00000000E+00  0.00000000E+00  0.00000000E+00
  0.00000000E+00  0.00000000E+00  0.00000000E+00
