Ag13, -888.0 <s> Pd </s>                
   1.00000000000000     
    20.5548019999999987    0.0000000000000000    0.0000000000000000
     0.0000000000000000   20.5548019999999987    0.0000000000000000
     0.0000000000000000    0.0000000000000000   20.5548019999999987
   Pd
    13
Direct
  0.6121808596639381  0.5650318242305328  0.5532306286244708
  0.3878191403360620  0.4349681757694673  0.5532306286244708
  0.5000000000000000  0.5000000000000000  0.5579765272836721
  0.3885002396879028  0.5664574482938501  0.5554444905881363
  0.5017569319806620  0.6269744803531760  0.5300269819342119
  0.4982430680193380  0.3730255196468241  0.5300269819342119
  0.6114997603120971  0.4335425517061501  0.5554444905881363
  0.5502179566439194  0.5421606633812353  0.4402186506506836
  0.4497820433560808  0.4578393366187647  0.4402186506506836
  0.3321672635228824  0.5045306934078254  0.4580041353376212
  0.4283810332498056  0.5866101628427044  0.4340868480354564
  0.5716189667501943  0.4133898371572955  0.4340868480354564
  0.6678327364771177  0.4954693065921747  0.4580041353376212
 
  0.00000000E+00  0.00000000E+00  0.00000000E+00
  0.00000000E+00  0.00000000E+00  0.00000000E+00
  0.00000000E+00  0.00000000E+00  0.00000000E+00
  0.00000000E+00  0.00000000E+00  0.00000000E+00
  0.00000000E+00  0.00000000E+00  0.00000000E+00
  0.00000000E+00  0.00000000E+00  0.00000000E+00
  0.00000000E+00  0.00000000E+00  0.00000000E+00
  0.00000000E+00  0.00000000E+00  0.00000000E+00
  0.00000000E+00  0.00000000E+00  0.00000000E+00
  0.00000000E+00  0.00000000E+00  0.00000000E+00
  0.00000000E+00  0.00000000E+00  0.00000000E+00
  0.00000000E+00  0.00000000E+00  0.00000000E+00
  0.00000000E+00  0.00000000E+00  0.00000000E+00
