Au35, -92.25047759 <s> Ag </s>
  1.00000000000000
    22.88373887701433     0.00000000000000     0.00000000000000
     0.00000000000000    22.88373887701433     0.00000000000000
     0.00000000000000     0.00000000000000    22.88373887701433
  Ag    
  35    
Direct
     0.70512375325014      0.37281861632194      0.54209089120079   
     0.69205794281666      0.48931304832282      0.51342891981082   
     0.67893265565923      0.60143082390762      0.48115708035689   
     0.62019148703030      0.56656459851563      0.58051843588405   
     0.63264007943488      0.45042005423311      0.60791418298709   
     0.63856493181138      0.40319323336709      0.44517031794191   
     0.57302215369911      0.65152428211924      0.50384005657409   
     0.63358652636299      0.51496045646870      0.40775395582085   
     0.59149523022279      0.34184852206653      0.56092930163455   
     0.51830091760233      0.62344578549221      0.60616923845101   
     0.60917449219569      0.63081607508748      0.38976976700391   
     0.53335134842675      0.51116131696290      0.64374683407779   
     0.53960468913943      0.39252845231111      0.65372786216990   
     0.41048150596287      0.67433640908909      0.62606670723567   
     0.64469353522351      0.28900345578181      0.47039545548326   
     0.42171529431989      0.55588007990037      0.63430371925960   
     0.46254253313041      0.68757166215917      0.51786167459979   
     0.47377260853292      0.34395554642063      0.56554141541535   
     0.35851698175064      0.36937469909930      0.57320025935796   
     0.49199821481455      0.64320588294232      0.41079509653071   
     0.53102648380252      0.33613721490467      0.45411218931919   
     0.53368370393213      0.55078213423130      0.34618762782837   
     0.34725668890918      0.71975584748575      0.53208493059980   
     0.55626721474273      0.43270576588041      0.36840417536281   
     0.34316876655994      0.60272774069665      0.55336244544677   
     0.43297494482621      0.43929333860334      0.63689206977808   
     0.37525339938571      0.64456372112155      0.44270387983939   
     0.46139203406188      0.36136320981119      0.35989981641039   
     0.41058155969717      0.35154755989892      0.46520057729174   
     0.41488633147817      0.55889079655377      0.36996149758260   
     0.34248574669378      0.48761501984285      0.57158829205898   
     0.46053334160812      0.46776688676900      0.30518401350674   
     0.33445617962156      0.53219803558345      0.45674891980506   
     0.37622909944984      0.44397935171302      0.38535947444885   
     0.30895706915936      0.41770261003493      0.47738463365965   
