Ba13, -15.29844144 <s> Ni </s>          
   1.00000000000000     
    23.3455198747245802    0.0000000000000000    0.0000000000000000
     0.0000000000000000   23.3455198747245802    0.0000000000000000
     0.0000000000000000    0.0000000000000000   23.3455198747245802
   Ni
    13
Direct
  0.3735397783611021  0.2622264062978384  0.2701345473095733
  0.2748566094050840  0.2446149501455583  0.2401146145529997
  0.3192068959695481  0.3366005340589441  0.2214834156080955
  0.2863016508175549  0.4016789624429215  0.2943882186836950
  0.3082342109249042  0.2105786765773862  0.3334006782075133
  0.2191223230843794  0.3319600379169531  0.2538973976845180
  0.2971710353827169  0.3064168453119668  0.3137146704934169
  0.3822315292924632  0.3604595586144544  0.3027292534226600
  0.2137886836874855  0.2529885890792198  0.3235350644533938
  0.2212116382063379  0.3500534176813143  0.3572173084686771
  0.2741313588953911  0.2748077315935082  0.4073539790908641
  0.3736509259291115  0.2815355465160658  0.3724441023286667
  0.3198184983606401  0.3674315402587793  0.3870679011510940
 
  0.00000000E+00  0.00000000E+00  0.00000000E+00
  0.00000000E+00  0.00000000E+00  0.00000000E+00
  0.00000000E+00  0.00000000E+00  0.00000000E+00
  0.00000000E+00  0.00000000E+00  0.00000000E+00
  0.00000000E+00  0.00000000E+00  0.00000000E+00
  0.00000000E+00  0.00000000E+00  0.00000000E+00
  0.00000000E+00  0.00000000E+00  0.00000000E+00
  0.00000000E+00  0.00000000E+00  0.00000000E+00
  0.00000000E+00  0.00000000E+00  0.00000000E+00
  0.00000000E+00  0.00000000E+00  0.00000000E+00
  0.00000000E+00  0.00000000E+00  0.00000000E+00
  0.00000000E+00  0.00000000E+00  0.00000000E+00
  0.00000000E+00  0.00000000E+00  0.00000000E+00
