Ba13, -15.29844144 <s> Ni </s>          
   1.00000000000000     
    23.3455198747245802    0.0000000000000000    0.0000000000000000
     0.0000000000000000   23.3455198747245802    0.0000000000000000
     0.0000000000000000    0.0000000000000000   23.3455198747245802
   Ni
    13
Direct
  0.3906377196146896  0.2555529018487989  0.2575198168005403
  0.2686327559650652  0.2286768526191131  0.2213502460235203
  0.3202347162449753  0.3417750331351694  0.1932085165228878
  0.2857655058095981  0.4233852584365926  0.2894811639582618
  0.3092326255757878  0.1894603518552777  0.3374981492124326
  0.2019602286260786  0.3359028331484887  0.2410033177461183
  0.2975418435201437  0.3065715041793982  0.3131582547552477
  0.4057045414449044  0.3736693198477817  0.3060924107598321
  0.1903342670923133  0.2393315107955631  0.3237870123981824
  0.2038231458339619  0.3575166777948759  0.3690792078785660
  0.2717868985349228  0.2697095321321584  0.4323386774468119
  0.3921507289560880  0.2763168771911741  0.3866842880918572
  0.3254601610981911  0.3834841435105192  0.4062800898609081
 
  0.00000000E+00  0.00000000E+00  0.00000000E+00
  0.00000000E+00  0.00000000E+00  0.00000000E+00
  0.00000000E+00  0.00000000E+00  0.00000000E+00
  0.00000000E+00  0.00000000E+00  0.00000000E+00
  0.00000000E+00  0.00000000E+00  0.00000000E+00
  0.00000000E+00  0.00000000E+00  0.00000000E+00
  0.00000000E+00  0.00000000E+00  0.00000000E+00
  0.00000000E+00  0.00000000E+00  0.00000000E+00
  0.00000000E+00  0.00000000E+00  0.00000000E+00
  0.00000000E+00  0.00000000E+00  0.00000000E+00
  0.00000000E+00  0.00000000E+00  0.00000000E+00
  0.00000000E+00  0.00000000E+00  0.00000000E+00
  0.00000000E+00  0.00000000E+00  0.00000000E+00
