Pt12, -52.32934922 <s> Ni </s>          
   1.00000000000000     
    18.8285375499107808    0.0000000000000000    0.0000000000000000
     0.0000000000000000   18.8285375499107808    0.0000000000000000
     0.0000000000000000    0.0000000000000000   18.8285375499107808
   Ni
    12
Direct
  0.5626556847315978  0.4846180217619110  0.4672777809753384
  0.4763330436199604  0.5496949972006002  0.5346441683621669
  0.4883667058344855  0.5664467637365895  0.4034183339906951
  0.5245665732822860  0.3635364207893805  0.4483530863460490
  0.4958637378570483  0.4258851045597017  0.5563000417671645
  0.3751969016619046  0.4673570071494913  0.5547625477723689
  0.4401723430038819  0.4675702637658271  0.4528503781639114
  0.4194671701049466  0.3723898559447329  0.3752061396596721
  0.5155268795466799  0.4511828331674933  0.3555040789196439
  0.3253889689892720  0.4315292584348233  0.4373957794382555
  0.4074021759516310  0.3568073350025606  0.4995423999688717
  0.3959211254385100  0.4936420497002998  0.3433622809560159
 
  0.00000000E+00  0.00000000E+00  0.00000000E+00
  0.00000000E+00  0.00000000E+00  0.00000000E+00
  0.00000000E+00  0.00000000E+00  0.00000000E+00
  0.00000000E+00  0.00000000E+00  0.00000000E+00
  0.00000000E+00  0.00000000E+00  0.00000000E+00
  0.00000000E+00  0.00000000E+00  0.00000000E+00
  0.00000000E+00  0.00000000E+00  0.00000000E+00
  0.00000000E+00  0.00000000E+00  0.00000000E+00
  0.00000000E+00  0.00000000E+00  0.00000000E+00
  0.00000000E+00  0.00000000E+00  0.00000000E+00
  0.00000000E+00  0.00000000E+00  0.00000000E+00
  0.00000000E+00  0.00000000E+00  0.00000000E+00
