Rh10, -740.0 <s> Pd </s>                
   1.00000000000000     
    17.4962459999999993    0.0000000000000000    0.0000000000000000
     0.0000000000000000   17.4962459999999993    0.0000000000000000
     0.0000000000000000    0.0000000000000000   17.4962459999999993
   Pd
    10
Direct
  0.4271874270995234  0.3853340596983199  0.4266200201148317
  0.5728187587585680  0.3853349007509115  0.4266148395330615
  0.4277852384272257  0.5326357607604840  0.4277824255452526
  0.5722208968040606  0.5326384134138876  0.4277557048708188
  0.4999993165043868  0.6640693006270856  0.4279391580316613
  0.4271789808667907  0.3853295076615161  0.5733804349629977
  0.5728115114161519  0.3853286693780227  0.5733730334502055
  0.4277807040620647  0.5326337264108533  0.5722431955222741
  0.5722151783313660  0.5326302717235045  0.5722188728997549
  0.5000019860257813  0.6640653929835613  0.5720723184772742
 
  0.00000000E+00  0.00000000E+00  0.00000000E+00
  0.00000000E+00  0.00000000E+00  0.00000000E+00
  0.00000000E+00  0.00000000E+00  0.00000000E+00
  0.00000000E+00  0.00000000E+00  0.00000000E+00
  0.00000000E+00  0.00000000E+00  0.00000000E+00
  0.00000000E+00  0.00000000E+00  0.00000000E+00
  0.00000000E+00  0.00000000E+00  0.00000000E+00
  0.00000000E+00  0.00000000E+00  0.00000000E+00
  0.00000000E+00  0.00000000E+00  0.00000000E+00
  0.00000000E+00  0.00000000E+00  0.00000000E+00
