Al53, -169.25650105 <s> Ag </s>         
   1.00000000000000     
    25.9972068406326713    0.0000000000000000    0.0000000000000000
     0.0000000000000000   25.9972068406326713    0.0000000000000000
     0.0000000000000000    0.0000000000000000   25.9972068406326713
   Ag
    53
Direct
  0.5280024757518181  0.2732489490607503  0.5093696453635144
  0.4355868122870488  0.2878320264944716  0.4577606072258908
  0.4365339792295388  0.2798131431691543  0.5660655608749723
  0.5248369515938850  0.3499962646554811  0.4259841571557215
  0.5891410464205539  0.3567834753865745  0.5180603360713514
  0.5256388161020530  0.3332350208863371  0.6058671817952849
  0.6008240218294271  0.4136782121932889  0.6057642951212432
  0.4730205290784880  0.3745074399882629  0.5200437573051576
  0.6512238234702493  0.4488235208664179  0.5055357241437480
  0.5762187207149404  0.3799109202784648  0.3361664672321811
  0.6338062812436369  0.3731803275546143  0.4252961452924966
  0.4139389174059557  0.3838564342671456  0.4236014387453959
  0.3673799381848600  0.3558539275456010  0.5199688009664530
  0.6842567496069104  0.4749442790977957  0.6169887014520642
  0.5593990594914611  0.4823933457446360  0.3030217865267955
  0.5802357100828468  0.4653207934943557  0.4089402237390680
  0.6409447502200764  0.5467849781495692  0.4543107699413063
  0.4170452409455206  0.3676193348577483  0.6195742833551230
  0.7103232814823300  0.5365662651513099  0.5350860285386543
  0.5424107517015527  0.4548763776342454  0.5130262000381925
  0.4990612877506351  0.4411955470960472  0.6169186991528842
  0.4834771728157541  0.4267050988897635  0.3579634046376625
  0.5872081013145802  0.5047908888918283  0.6614415120952668
  0.5986632234242772  0.5357097114579251  0.5568855785775118
  0.3871029025108282  0.4792158697139646  0.3737564755563524
  0.3397503507272967  0.4483997929895451  0.4677718448150845
  0.4047772793912728  0.4613519575624903  0.6668431478192099
  0.4519639475948961  0.4798546293427745  0.4607834377506785
  0.6657218698047749  0.5799650271939550  0.6294335288171844
  0.4819024512072428  0.5327849203903675  0.3599138749899123
  0.5322973046384920  0.5554015569369455  0.4619705103166423
  0.4017804673816882  0.4558763635285131  0.5577265770826966
  0.4831591133639451  0.5369499589327221  0.6648720397056863
  0.5605949041780177  0.6095232055753551  0.6475191593064046
  0.6565372037362645  0.6289025464416648  0.5260299914275369
  0.4820798193459256  0.5380736819361156  0.5550080726213551
  0.5829573339408546  0.5684598433770218  0.3651905871822164
  0.3043234629215931  0.5348187515195987  0.4140622575769283
  0.5446908998089824  0.6330642979801357  0.5412780890403304
  0.3848043107045223  0.5503503748046705  0.6104919620614147
  0.3990930490046388  0.5830965931912132  0.4036401713521030
  0.3677384159029580  0.5479801982911408  0.5026903818225268
  0.5925742489886046  0.6481776446237258  0.4411314808820790
  0.4463019745792263  0.6267122438818052  0.4902798587299603
  0.6345479181925318  0.6815998070016164  0.6162798565406391
  0.4586432143801488  0.6315320789719703  0.6152627418889443
  0.4948051192300579  0.6346660906466634  0.3938171220484477
  0.3659830229526197  0.6418113722303370  0.5588826430696643
  0.5091788217400544  0.7147549124254808  0.4645441799735181
  0.5323249631081399  0.7133884954361122  0.6150178587350446
  0.6016013799374940  0.7240061032782317  0.5216221186704464
  0.4439896359194528  0.7165107299309516  0.5509315372204137
  0.5184667128707185  0.7917999133708868  0.5418414990660207
 
  0.00000000E+00  0.00000000E+00  0.00000000E+00
  0.00000000E+00  0.00000000E+00  0.00000000E+00
  0.00000000E+00  0.00000000E+00  0.00000000E+00
  0.00000000E+00  0.00000000E+00  0.00000000E+00
  0.00000000E+00  0.00000000E+00  0.00000000E+00
  0.00000000E+00  0.00000000E+00  0.00000000E+00
  0.00000000E+00  0.00000000E+00  0.00000000E+00
  0.00000000E+00  0.00000000E+00  0.00000000E+00
  0.00000000E+00  0.00000000E+00  0.00000000E+00
  0.00000000E+00  0.00000000E+00  0.00000000E+00
  0.00000000E+00  0.00000000E+00  0.00000000E+00
  0.00000000E+00  0.00000000E+00  0.00000000E+00
  0.00000000E+00  0.00000000E+00  0.00000000E+00
  0.00000000E+00  0.00000000E+00  0.00000000E+00
  0.00000000E+00  0.00000000E+00  0.00000000E+00
  0.00000000E+00  0.00000000E+00  0.00000000E+00
  0.00000000E+00  0.00000000E+00  0.00000000E+00
  0.00000000E+00  0.00000000E+00  0.00000000E+00
  0.00000000E+00  0.00000000E+00  0.00000000E+00
  0.00000000E+00  0.00000000E+00  0.00000000E+00
  0.00000000E+00  0.00000000E+00  0.00000000E+00
  0.00000000E+00  0.00000000E+00  0.00000000E+00
  0.00000000E+00  0.00000000E+00  0.00000000E+00
  0.00000000E+00  0.00000000E+00  0.00000000E+00
  0.00000000E+00  0.00000000E+00  0.00000000E+00
  0.00000000E+00  0.00000000E+00  0.00000000E+00
  0.00000000E+00  0.00000000E+00  0.00000000E+00
  0.00000000E+00  0.00000000E+00  0.00000000E+00
  0.00000000E+00  0.00000000E+00  0.00000000E+00
  0.00000000E+00  0.00000000E+00  0.00000000E+00
  0.00000000E+00  0.00000000E+00  0.00000000E+00
  0.00000000E+00  0.00000000E+00  0.00000000E+00
  0.00000000E+00  0.00000000E+00  0.00000000E+00
  0.00000000E+00  0.00000000E+00  0.00000000E+00
  0.00000000E+00  0.00000000E+00  0.00000000E+00
  0.00000000E+00  0.00000000E+00  0.00000000E+00
  0.00000000E+00  0.00000000E+00  0.00000000E+00
  0.00000000E+00  0.00000000E+00  0.00000000E+00
  0.00000000E+00  0.00000000E+00  0.00000000E+00
  0.00000000E+00  0.00000000E+00  0.00000000E+00
  0.00000000E+00  0.00000000E+00  0.00000000E+00
  0.00000000E+00  0.00000000E+00  0.00000000E+00
  0.00000000E+00  0.00000000E+00  0.00000000E+00
  0.00000000E+00  0.00000000E+00  0.00000000E+00
  0.00000000E+00  0.00000000E+00  0.00000000E+00
  0.00000000E+00  0.00000000E+00  0.00000000E+00
  0.00000000E+00  0.00000000E+00  0.00000000E+00
  0.00000000E+00  0.00000000E+00  0.00000000E+00
  0.00000000E+00  0.00000000E+00  0.00000000E+00
  0.00000000E+00  0.00000000E+00  0.00000000E+00
  0.00000000E+00  0.00000000E+00  0.00000000E+00
  0.00000000E+00  0.00000000E+00  0.00000000E+00
  0.00000000E+00  0.00000000E+00  0.00000000E+00
