Al53, -169.25650105 <s> Ag </s>
  1.00000000000000
    25.99720684063267     0.00000000000000     0.00000000000000
     0.00000000000000    25.99720684063267     0.00000000000000
     0.00000000000000     0.00000000000000    25.99720684063267
  Ag    
  53    
Direct
     0.51951680412251      0.27209735959104      0.51994443123852   
     0.42885331480309      0.28495354058393      0.46681325932273   
     0.42776957328966      0.28271662143056      0.57725487801651   
     0.52400154776589      0.37390018274965      0.43551270427864   
     0.58984453403908      0.34660471288386      0.51905731731566   
     0.52258439553588      0.33436686922775      0.61299648285958   
     0.60130520753612      0.40791634954703      0.60356034274227   
     0.47234024370867      0.37424983116362      0.52503854021833   
     0.65135562019641      0.45387371014214      0.50445004943402   
     0.58010239331794      0.39626347759886      0.34133573202490   
     0.63291118162464      0.38024415873946      0.42897113175546   
     0.41619945546906      0.37882925862885      0.42398228621386   
     0.36522984400604      0.35692183226364      0.52326441353021   
     0.68306638669012      0.47278559910981      0.61132751568934   
     0.56413712126063      0.49371886967317      0.30297486379264   
     0.57653746078017      0.47731739157908      0.41075272328063   
     0.64128349803841      0.55420692529030      0.45078921250960   
     0.41815421534586      0.37663984243221      0.62313125532882   
     0.71251530864773      0.53912027973749      0.52915512964080   
     0.54303219438520      0.45404408066732      0.51389879394086   
     0.50046533831102      0.44443659393005      0.61453277968183   
     0.48068894874385      0.42677633319913      0.35066103612952   
     0.58711248275728      0.49971250482561      0.65786665609127   
     0.59737603035297      0.53451863086846      0.55406017138061   
     0.38666387647148      0.46789999765082      0.36888971749007   
     0.34216059272772      0.44495982142943      0.46705028322080   
     0.40335852792835      0.46755365664673      0.66717362646520   
     0.45407560325583      0.47767981041296      0.45642721841717   
     0.66627549716394      0.57484802295662      0.62818279310097   
     0.48319261056866      0.53284727456472      0.35367834334873   
     0.52698078298290      0.55883380060667      0.45785474317998   
     0.40024434034658      0.45844105369950      0.55570040655882   
     0.48580370291300      0.53515883650256      0.66807896484982   
     0.56310343037478      0.60183270265508      0.63836518057299   
     0.65349633934388      0.62681307214876      0.53071183720713   
     0.48166013798715      0.53677500701959      0.55339132714289   
     0.58238214716262      0.58181461273623      0.36226965765969   
     0.30708270774676      0.52811655287472      0.41091823916841   
     0.54036286165617      0.62947533964087      0.53765553216836   
     0.38219551394481      0.55022239142356      0.61010225376090   
     0.40289140197709      0.57252990849762      0.40259820927116   
     0.36970065865878      0.54566814767662      0.50119028903283   
     0.59411848862586      0.65014384683839      0.44332664260595   
     0.44522720209710      0.62348194953202      0.48426280979709   
     0.64117247300112      0.67893396025192      0.62451477829292   
     0.46204764992391      0.62587495023813      0.61837961845091   
     0.49214940418257      0.63956041623098      0.38193546224959   
     0.36931847895747      0.63805507713042      0.55866723521003   
     0.50878261550654      0.70979283441724      0.46474045159861   
     0.53692074875424      0.70616045946265      0.61489049378435   
     0.60594891989451      0.72270908363094      0.52550952191288   
     0.44488835667469      0.70900868735055      0.55206791400251   
     0.52028156865491      0.78524901422846      0.54236905448003   
