Al11, -29.54887914 <s> Pd </s>          
   1.00000000000000     
    19.5260825052943012    0.0000000000000000    0.0000000000000000
     0.0000000000000000   19.5260825052943012    0.0000000000000000
     0.0000000000000000    0.0000000000000000   19.5260825052943012
   Pd
    11
Direct
  0.4785358945550264  0.3641395021785146  0.4332443463704742
  0.5882044023002791  0.4389175101001881  0.4246410279108800
  0.4685546343919574  0.4698849130072651  0.3486845756945472
  0.5810971833517994  0.5412384391355262  0.3384068424756333
  0.5170994755994636  0.4397590434007744  0.5410402724801375
  0.5210879531449399  0.4688454990579185  0.6708621501296352
  0.5111589147159561  0.5494190465000632  0.4519486388678998
  0.4022484212279042  0.4698230886020581  0.4699368523870522
  0.5189476488530576  0.5724180253568787  0.5853989710651580
  0.4052866055980148  0.4864174532822864  0.6067294693546957
  0.4020694723408328  0.5942986007042197  0.5245039550206935
 
  0.00000000E+00  0.00000000E+00  0.00000000E+00
  0.00000000E+00  0.00000000E+00  0.00000000E+00
  0.00000000E+00  0.00000000E+00  0.00000000E+00
  0.00000000E+00  0.00000000E+00  0.00000000E+00
  0.00000000E+00  0.00000000E+00  0.00000000E+00
  0.00000000E+00  0.00000000E+00  0.00000000E+00
  0.00000000E+00  0.00000000E+00  0.00000000E+00
  0.00000000E+00  0.00000000E+00  0.00000000E+00
  0.00000000E+00  0.00000000E+00  0.00000000E+00
  0.00000000E+00  0.00000000E+00  0.00000000E+00
  0.00000000E+00  0.00000000E+00  0.00000000E+00
