Pt11, -46.93263774 <s> Pd </s>          
   1.00000000000000     
    18.6987967317758290    0.0000000000000000    0.0000000000000000
     0.0000000000000000   18.6987967317758290    0.0000000000000000
     0.0000000000000000    0.0000000000000000   18.6987967317758290
   Pd
    11
Direct
  0.6045081709050026  0.4121119893903133  0.5180638611094124
  0.5550159958592732  0.4997158171795891  0.4180447251325154
  0.4678174791968137  0.4057815201265081  0.4775866733652065
  0.5015352851506661  0.3895746277748098  0.6143131421235377
  0.4862126387665322  0.6032533183074047  0.3585065333096359
  0.5213563882399669  0.5215299193094574  0.5692783528109976
  0.5388066708320808  0.6322501725806721  0.4833022646914200
  0.3897780092924211  0.4720335320636391  0.5864448629846781
  0.4220496763710577  0.5464406331202493  0.4663534684021050
  0.3340289625552635  0.4403111075354068  0.4637713182376778
  0.6484991715251467  0.5471904840745728  0.5143533711896107
 
  0.00000000E+00  0.00000000E+00  0.00000000E+00
  0.00000000E+00  0.00000000E+00  0.00000000E+00
  0.00000000E+00  0.00000000E+00  0.00000000E+00
  0.00000000E+00  0.00000000E+00  0.00000000E+00
  0.00000000E+00  0.00000000E+00  0.00000000E+00
  0.00000000E+00  0.00000000E+00  0.00000000E+00
  0.00000000E+00  0.00000000E+00  0.00000000E+00
  0.00000000E+00  0.00000000E+00  0.00000000E+00
  0.00000000E+00  0.00000000E+00  0.00000000E+00
  0.00000000E+00  0.00000000E+00  0.00000000E+00
  0.00000000E+00  0.00000000E+00  0.00000000E+00
