Tl13, -23.39237388 <s> Pd </s>          
   1.00000000000000     
    19.6156641341686289    0.0000000000000000    0.0000000000000000
     0.0000000000000000   19.6156641341686289    0.0000000000000000
     0.0000000000000000    0.0000000000000000   19.6156641341686289
   Pd
    13
Direct
  0.5313093060686810  0.3701036446475061  0.3624330083011422
  0.4414459774746589  0.4539522954831874  0.4221751972569003
  0.5395371056031070  0.3945317452578963  0.4964116449845016
  0.5046822542503973  0.5184944437443388  0.5222162449321420
  0.4269281998300467  0.4235877390818964  0.2877804204333905
  0.5025562260537774  0.2720252427534423  0.4515979393154521
  0.4020171782991778  0.3268807881083104  0.3833899906096725
  0.2830791352873917  0.5352653263002557  0.4719492662267282
  0.3394548212829144  0.5060305013941330  0.3561504992224229
  0.3020306423948379  0.3839114611125227  0.3170281218903687
  0.3808759293752198  0.4812433471361015  0.5387743982969415
  0.4160599654966236  0.3508808654576684  0.5198419368613753
  0.3087606532893019  0.4053886804244645  0.4497360685564707
 
  0.00000000E+00  0.00000000E+00  0.00000000E+00
  0.00000000E+00  0.00000000E+00  0.00000000E+00
  0.00000000E+00  0.00000000E+00  0.00000000E+00
  0.00000000E+00  0.00000000E+00  0.00000000E+00
  0.00000000E+00  0.00000000E+00  0.00000000E+00
  0.00000000E+00  0.00000000E+00  0.00000000E+00
  0.00000000E+00  0.00000000E+00  0.00000000E+00
  0.00000000E+00  0.00000000E+00  0.00000000E+00
  0.00000000E+00  0.00000000E+00  0.00000000E+00
  0.00000000E+00  0.00000000E+00  0.00000000E+00
  0.00000000E+00  0.00000000E+00  0.00000000E+00
  0.00000000E+00  0.00000000E+00  0.00000000E+00
  0.00000000E+00  0.00000000E+00  0.00000000E+00
