Ti51, -342.36039385 <s> Ag </s>         
   1.00000000000000     
    23.1041005864533915    0.0000000000000000    0.0000000000000000
     0.0000000000000000   23.1041005864533915    0.0000000000000000
     0.0000000000000000    0.0000000000000000   23.1041005864533915
   Ag
    51
Direct
  0.7320819706365288  0.5557903116082074  0.3703150289672785
  0.7400494200133767  0.5314010875950752  0.4904100967901242
  0.7314564856856415  0.6515396219903226  0.4518486679598201
  0.7110646630125211  0.4122408313887816  0.5178993143236489
  0.6638360512102206  0.4601101793818509  0.4190821962631487
  0.6352104845480989  0.3416653580499507  0.4321868162653114
  0.6484968949019579  0.6439462057945657  0.3380812502792664
  0.6672350904125492  0.6258880619336277  0.5547539025386273
  0.6222284392491202  0.5239672102814357  0.3257909786798047
  0.6396324343792210  0.5820282003222528  0.4427325378733289
  0.6444004675312203  0.5084289720299990  0.5632983852904179
  0.6414370026548615  0.3098599735772876  0.5467105030327598
  0.6510366536646517  0.4036944281409285  0.6235682430463109
  0.5919511140162954  0.6899013515628903  0.4802664065899523
  0.5256951513568439  0.3922010246542194  0.4021924819852100
  0.5395145738242073  0.6323906936811509  0.3882641714380469
  0.5416036034579159  0.4603711351914191  0.6201982107549776
  0.5850641434899572  0.4165528568801926  0.5124038153453245
  0.5470002430807610  0.5083707106241910  0.4255353736643911
  0.5795610891879523  0.5733911254485873  0.6460234875401002
  0.5469145671024910  0.5986828550932792  0.2736101583204470
  0.5251690954573420  0.3128413929616289  0.4987889291603332
  0.5513947299262125  0.5812724211352098  0.5270393406804790
  0.5108341373788792  0.4782535210074246  0.3098333908095864
  0.5498399832877862  0.3364164915079671  0.6208712366557683
  0.4759575301020154  0.4711482154429665  0.5176954044538641
  0.5705596542534132  0.6858345689754705  0.6008419901030579
  0.4308861976957232  0.4793739302133039  0.4048169102380192
  0.4430800320610190  0.5795474891584925  0.3320600025622403
  0.4840023580997033  0.6417161036689554  0.6749537259116437
  0.4412835071843939  0.3550026651894122  0.5762849156915283
  0.4688096492885984  0.3907607992274386  0.6929313742709698
  0.4731787388104001  0.6846494606042655  0.5309088572821681
  0.4226704201297385  0.3853019263921846  0.3344525951570084
  0.4192803372272161  0.3680798239751012  0.4597926578764588
  0.4520111573009069  0.5864902485395054  0.4562476743029192
  0.4812285038498731  0.5204638747304398  0.7047719376990235
  0.4396333771003107  0.5760736640042585  0.5817249032538587
  0.4065018847222333  0.4674521589885598  0.6189552306309735
  0.3591326810344578  0.4884428441553189  0.3095959946386692
  0.3556780446396982  0.5104320747157274  0.5097050241798045
  0.3800597851113520  0.6758609051878993  0.6185091593239560
  0.3311703273318755  0.3966474482179649  0.5391498194727745
  0.3424621475995486  0.5670005545165568  0.4023857538487876
  0.3519556128350751  0.3646595296709492  0.6577823979090417
  0.3206256585360013  0.4336046465988651  0.4205711696160808
  0.3571643522868237  0.6400338594577477  0.5033046054824933
  0.3739388559380428  0.4607094631354031  0.7337723382046818
  0.3764765036561975  0.5744742314677381  0.6911698404354473
  0.3060115019210532  0.5782477190809784  0.5956040650493125
  0.2882532399378027  0.4671465071415671  0.6331179879981319
 
  0.00000000E+00  0.00000000E+00  0.00000000E+00
  0.00000000E+00  0.00000000E+00  0.00000000E+00
  0.00000000E+00  0.00000000E+00  0.00000000E+00
  0.00000000E+00  0.00000000E+00  0.00000000E+00
  0.00000000E+00  0.00000000E+00  0.00000000E+00
  0.00000000E+00  0.00000000E+00  0.00000000E+00
  0.00000000E+00  0.00000000E+00  0.00000000E+00
  0.00000000E+00  0.00000000E+00  0.00000000E+00
  0.00000000E+00  0.00000000E+00  0.00000000E+00
  0.00000000E+00  0.00000000E+00  0.00000000E+00
  0.00000000E+00  0.00000000E+00  0.00000000E+00
  0.00000000E+00  0.00000000E+00  0.00000000E+00
  0.00000000E+00  0.00000000E+00  0.00000000E+00
  0.00000000E+00  0.00000000E+00  0.00000000E+00
  0.00000000E+00  0.00000000E+00  0.00000000E+00
  0.00000000E+00  0.00000000E+00  0.00000000E+00
  0.00000000E+00  0.00000000E+00  0.00000000E+00
  0.00000000E+00  0.00000000E+00  0.00000000E+00
  0.00000000E+00  0.00000000E+00  0.00000000E+00
  0.00000000E+00  0.00000000E+00  0.00000000E+00
  0.00000000E+00  0.00000000E+00  0.00000000E+00
  0.00000000E+00  0.00000000E+00  0.00000000E+00
  0.00000000E+00  0.00000000E+00  0.00000000E+00
  0.00000000E+00  0.00000000E+00  0.00000000E+00
  0.00000000E+00  0.00000000E+00  0.00000000E+00
  0.00000000E+00  0.00000000E+00  0.00000000E+00
  0.00000000E+00  0.00000000E+00  0.00000000E+00
  0.00000000E+00  0.00000000E+00  0.00000000E+00
  0.00000000E+00  0.00000000E+00  0.00000000E+00
  0.00000000E+00  0.00000000E+00  0.00000000E+00
  0.00000000E+00  0.00000000E+00  0.00000000E+00
  0.00000000E+00  0.00000000E+00  0.00000000E+00
  0.00000000E+00  0.00000000E+00  0.00000000E+00
  0.00000000E+00  0.00000000E+00  0.00000000E+00
  0.00000000E+00  0.00000000E+00  0.00000000E+00
  0.00000000E+00  0.00000000E+00  0.00000000E+00
  0.00000000E+00  0.00000000E+00  0.00000000E+00
  0.00000000E+00  0.00000000E+00  0.00000000E+00
  0.00000000E+00  0.00000000E+00  0.00000000E+00
  0.00000000E+00  0.00000000E+00  0.00000000E+00
  0.00000000E+00  0.00000000E+00  0.00000000E+00
  0.00000000E+00  0.00000000E+00  0.00000000E+00
  0.00000000E+00  0.00000000E+00  0.00000000E+00
  0.00000000E+00  0.00000000E+00  0.00000000E+00
  0.00000000E+00  0.00000000E+00  0.00000000E+00
  0.00000000E+00  0.00000000E+00  0.00000000E+00
  0.00000000E+00  0.00000000E+00  0.00000000E+00
  0.00000000E+00  0.00000000E+00  0.00000000E+00
  0.00000000E+00  0.00000000E+00  0.00000000E+00
  0.00000000E+00  0.00000000E+00  0.00000000E+00
  0.00000000E+00  0.00000000E+00  0.00000000E+00
