Mo11, -837.0 <s> Pd </s>                
   1.00000000000000     
    17.9438880000000012    0.0000000000000000    0.0000000000000000
     0.0000000000000000   17.9438880000000012    0.0000000000000000
     0.0000000000000000    0.0000000000000000   17.9438880000000012
   Pd
    11
Direct
  0.5691961852461799  0.5947042013376073  0.5605586251339941
  0.5974215715798965  0.4484707391854296  0.5807147956617231
  0.3732888681512706  0.3993097138901577  0.5130314613629885
  0.4171422610713781  0.5239030380013211  0.4456117784370115
  0.5121646720495852  0.4117545210990589  0.4630946702980036
  0.5220999019015133  0.6223587159616405  0.4244132057065647
  0.6188874543245837  0.5143880065774445  0.4477018689142882
  0.4842574305965937  0.3532967202328346  0.5967170778381532
  0.4297572318883147  0.6365974348823062  0.5410984360002666
  0.4571009414009749  0.4981577115798311  0.5851618634233519
  0.5186834829562641  0.4970591984189164  0.3418962195567287
 
  0.00000000E+00  0.00000000E+00  0.00000000E+00
  0.00000000E+00  0.00000000E+00  0.00000000E+00
  0.00000000E+00  0.00000000E+00  0.00000000E+00
  0.00000000E+00  0.00000000E+00  0.00000000E+00
  0.00000000E+00  0.00000000E+00  0.00000000E+00
  0.00000000E+00  0.00000000E+00  0.00000000E+00
  0.00000000E+00  0.00000000E+00  0.00000000E+00
  0.00000000E+00  0.00000000E+00  0.00000000E+00
  0.00000000E+00  0.00000000E+00  0.00000000E+00
  0.00000000E+00  0.00000000E+00  0.00000000E+00
  0.00000000E+00  0.00000000E+00  0.00000000E+00
