Nb11, -823.0 <s> Ni </s>                
   1.00000000000000     
    17.2451739999999987    0.0000000000000000    0.0000000000000000
     0.0000000000000000   17.2451739999999987    0.0000000000000000
     0.0000000000000000    0.0000000000000000   17.2451739999999987
   Ni
    11
Direct
  0.6187142734425712  0.5465717047169069  0.5383168919978519
  0.3895535738739834  0.4749621646417183  0.4315502993749054
  0.4080410453989790  0.6132889023908590  0.4590881563011262
  0.4470673060505662  0.3996770608168896  0.5296873460640734
  0.5083934838495554  0.4089601740955283  0.4027564403326199
  0.5801529269450268  0.4174173085438360  0.5183199082250440
  0.6223549298494507  0.4890748954573370  0.4107643480583031
  0.5174639726325143  0.4876919276274255  0.6153353106611774
  0.5011642531823349  0.6145407465244492  0.5664069985531007
  0.3996190654823865  0.5229211411849283  0.5593131543078125
  0.5074751583980428  0.5248939413163710  0.4684611352293893
 
  0.00000000E+00  0.00000000E+00  0.00000000E+00
  0.00000000E+00  0.00000000E+00  0.00000000E+00
  0.00000000E+00  0.00000000E+00  0.00000000E+00
  0.00000000E+00  0.00000000E+00  0.00000000E+00
  0.00000000E+00  0.00000000E+00  0.00000000E+00
  0.00000000E+00  0.00000000E+00  0.00000000E+00
  0.00000000E+00  0.00000000E+00  0.00000000E+00
  0.00000000E+00  0.00000000E+00  0.00000000E+00
  0.00000000E+00  0.00000000E+00  0.00000000E+00
  0.00000000E+00  0.00000000E+00  0.00000000E+00
  0.00000000E+00  0.00000000E+00  0.00000000E+00
