Nb11, -823.0 <s> Ni </s>                
   1.00000000000000     
    17.2451739999999987    0.0000000000000000    0.0000000000000000
     0.0000000000000000   17.2451739999999987    0.0000000000000000
     0.0000000000000000    0.0000000000000000   17.2451739999999987
   Ni
    11
Direct
  0.6441920866502064  0.5584582786544783  0.5417874192703147
  0.3651920230215737  0.4746494405976545  0.4153678906407321
  0.3672413488707587  0.6384160092063539  0.4668220414253967
  0.4400540277445958  0.3832126824976760  0.5345772931452699
  0.5095435343559335  0.3910919557145478  0.3816107877733161
  0.6056830563941443  0.3918007630641864  0.5243096001394877
  0.6620298341417754  0.4666676134742968  0.3981600884375404
  0.5229832173099124  0.4862275129468662  0.6332277177516306
  0.5002811642105525  0.6424213647265510  0.5753455084113247
  0.3717254697757463  0.5280867272616798  0.5789043388010924
  0.5110742266302128  0.5389676191719515  0.4498873033092996
 
  0.00000000E+00  0.00000000E+00  0.00000000E+00
  0.00000000E+00  0.00000000E+00  0.00000000E+00
  0.00000000E+00  0.00000000E+00  0.00000000E+00
  0.00000000E+00  0.00000000E+00  0.00000000E+00
  0.00000000E+00  0.00000000E+00  0.00000000E+00
  0.00000000E+00  0.00000000E+00  0.00000000E+00
  0.00000000E+00  0.00000000E+00  0.00000000E+00
  0.00000000E+00  0.00000000E+00  0.00000000E+00
  0.00000000E+00  0.00000000E+00  0.00000000E+00
  0.00000000E+00  0.00000000E+00  0.00000000E+00
  0.00000000E+00  0.00000000E+00  0.00000000E+00
