Al44, -139.36186899 <s> Ag </s>
  1.00000000000000
    22.96066493105115     0.00000000000000     0.00000000000000
     0.00000000000000    22.96066493105115     0.00000000000000
     0.00000000000000     0.00000000000000    22.96066493105115
  Ag    
  44    
Direct
     0.30466505119587      0.53495222362300      0.62675923911352   
     0.32611218458988      0.41584324022698      0.59389778064141   
     0.29302852065932      0.51986844213569      0.50648229001251   
     0.39167914285981      0.60062111306394      0.67497772296767   
     0.29741481447884      0.40720146730763      0.46883899222949   
     0.38892044537682      0.58510762060761      0.55235268603089   
     0.43721117485434      0.37105797445627      0.61384158099051   
     0.41296431959182      0.48451578954870      0.64700739515044   
     0.50501349284500      0.55421291692215      0.69405784444661   
     0.35971223699084      0.58994243422644      0.43576721281545   
     0.52574144165611      0.44491438045418      0.65479153867764   
     0.44621075028269      0.68010969816451      0.60147379826159   
     0.38663437956879      0.34254999800880      0.50703234996662   
     0.41420043425456      0.46403876010957      0.52024657655312   
     0.36971307103848      0.47360525506365      0.40091436072577   
     0.39701093662863      0.69118064958117      0.49180245029250   
     0.48515011494474      0.67049308849523      0.71722386258087   
     0.47037032893396      0.39671969139327      0.42919504544854   
     0.50018797185347      0.53605602356326      0.56981325676274   
     0.50017421615171      0.31224796202125      0.51490032322417   
     0.53909537259660      0.42613010483308      0.53062451294237   
     0.47257898496361      0.53860992737884      0.44570677926972   
     0.56318066203595      0.64237363520831      0.62405486884739   
     0.54962496172394      0.33234626187822      0.61989359105650   
     0.65670206045986      0.42035960149958      0.48917491734999   
     0.47308055326118      0.47049888524749      0.33340579664744   
     0.50990126527712      0.64021581252574      0.50981896402523   
     0.46488899031821      0.65167258277549      0.39959516997072   
     0.60895967440862      0.52961895308423      0.62728360090319   
     0.60193378349923      0.54864613908751      0.50449908557033   
     0.63723029963555      0.41251145583924      0.60587049891686   
     0.56762194150878      0.47119362344469      0.41483320045202   
     0.53366448081058      0.57545527709446      0.34356649939072   
     0.55637788096188      0.38111599357858      0.32334132303809   
     0.58729339550490      0.34532226499248      0.43297444337068   
     0.69022785790062      0.61771883939512      0.60205133313828   
     0.59272142491834      0.64892386506720      0.42404429113438   
     0.62440128759879      0.68964748319802      0.53020523874578   
     0.59725485521756      0.49069462721216      0.29095249603618   
     0.70931251503441      0.50292494246827      0.56350800901402   
     0.73830141935987      0.49912954472710      0.44754033969699   
     0.67229989281426      0.42826843545182      0.36733915768776   
     0.64860829334046      0.55414693309784      0.38202488503222   
     0.70163793504750      0.61441496869552      0.47395357954143   
