Pt10, -41.88218608 <s> Ni </s>          
   1.00000000000000     
    18.0213684173244815    0.0000000000000000    0.0000000000000000
     0.0000000000000000   18.0213684173244815    0.0000000000000000
     0.0000000000000000    0.0000000000000000   18.0213684173244815
   Ni
    10
Direct
  0.3339647989076183  0.3563921430772075  0.5542953134494912
  0.4172277803367982  0.5214078513575239  0.3214624331924716
  0.4380612403622920  0.4633718351079131  0.5745730137112122
  0.4896636806642089  0.3244983160722085  0.5104373318596198
  0.5852753602814590  0.4531648058610267  0.5014451326494999
  0.5237209938429637  0.3980504032621108  0.3647935878520945
  0.3793448933700090  0.3922153201227238  0.4122179727065421
  0.3150067903014563  0.5120147238342670  0.4755768813373882
  0.5772103665635037  0.5397079003457018  0.3573496854072291
  0.4682435936581744  0.5590909840286008  0.4623302780790077
 
  0.00000000E+00  0.00000000E+00  0.00000000E+00
  0.00000000E+00  0.00000000E+00  0.00000000E+00
  0.00000000E+00  0.00000000E+00  0.00000000E+00
  0.00000000E+00  0.00000000E+00  0.00000000E+00
  0.00000000E+00  0.00000000E+00  0.00000000E+00
  0.00000000E+00  0.00000000E+00  0.00000000E+00
  0.00000000E+00  0.00000000E+00  0.00000000E+00
  0.00000000E+00  0.00000000E+00  0.00000000E+00
  0.00000000E+00  0.00000000E+00  0.00000000E+00
  0.00000000E+00  0.00000000E+00  0.00000000E+00
