Be10, -19.48295048 <s> Ni </s>          
   1.00000000000000     
    18.1703529110701005    0.0000000000000000    0.0000000000000000
     0.0000000000000000   18.1703529110701005    0.0000000000000000
     0.0000000000000000    0.0000000000000000   18.1703529110701005
   Ni
    10
Direct
  0.5822759064776497  0.4092704993634680  0.5993204172263631
  0.4664309604607831  0.4782575809033447  0.5922342805313724
  0.5794923038739336  0.5324874268676296  0.6183229165742458
  0.5378832174032143  0.4584656831163142  0.4916888158158952
  0.4819535234233928  0.6087092304315709  0.5935116647114091
  0.6574869676537123  0.4984025799025803  0.5288919028069257
  0.4501957036561281  0.5548893151492820  0.4851335690683685
  0.6066035536468583  0.6459058021588748  0.5705180315330700
  0.5760845862434913  0.5774144088829404  0.4725349441110370
  0.5029769238694877  0.6776631928746105  0.4895048295974241
 
  0.00000000E+00  0.00000000E+00  0.00000000E+00
  0.00000000E+00  0.00000000E+00  0.00000000E+00
  0.00000000E+00  0.00000000E+00  0.00000000E+00
  0.00000000E+00  0.00000000E+00  0.00000000E+00
  0.00000000E+00  0.00000000E+00  0.00000000E+00
  0.00000000E+00  0.00000000E+00  0.00000000E+00
  0.00000000E+00  0.00000000E+00  0.00000000E+00
  0.00000000E+00  0.00000000E+00  0.00000000E+00
  0.00000000E+00  0.00000000E+00  0.00000000E+00
  0.00000000E+00  0.00000000E+00  0.00000000E+00
