Be10, -19.48295048 <s> Ni </s>          
   1.00000000000000     
    18.1703529110701005    0.0000000000000000    0.0000000000000000
     0.0000000000000000   18.1703529110701005    0.0000000000000000
     0.0000000000000000    0.0000000000000000   18.1703529110701005
   Ni
    10
Direct
  0.5885693874421462  0.3815637212220570  0.6072909420105062
  0.4413842224803749  0.4595385395362045  0.6056390855592364
  0.5776970417027678  0.5297452366615008  0.6291447496126329
  0.5418277287714166  0.4376802282945653  0.4762550391077723
  0.4700596148178219  0.6314332146753259  0.6105087776458751
  0.6870923579093157  0.4939001820362554  0.5329952353984975
  0.4289903282783470  0.5520299584974095  0.4782037197876991
  0.6280005562403905  0.6696055484961423  0.5697270944774144
  0.5829543131596685  0.5821563492123857  0.4522895658959291
  0.4948080959064095  0.7038127410187757  0.4796071624805398
 
  0.00000000E+00  0.00000000E+00  0.00000000E+00
  0.00000000E+00  0.00000000E+00  0.00000000E+00
  0.00000000E+00  0.00000000E+00  0.00000000E+00
  0.00000000E+00  0.00000000E+00  0.00000000E+00
  0.00000000E+00  0.00000000E+00  0.00000000E+00
  0.00000000E+00  0.00000000E+00  0.00000000E+00
  0.00000000E+00  0.00000000E+00  0.00000000E+00
  0.00000000E+00  0.00000000E+00  0.00000000E+00
  0.00000000E+00  0.00000000E+00  0.00000000E+00
  0.00000000E+00  0.00000000E+00  0.00000000E+00
