Ti52, -349.40348278 <s> Ag </s>         
   1.00000000000000     
    24.2749864380745990    0.0000000000000000    0.0000000000000000
     0.0000000000000000   24.2749864380745990    0.0000000000000000
     0.0000000000000000    0.0000000000000000   24.2749864380745990
   Ag
    52
Direct
  0.5290015400517414  0.4482377744419069  0.2720937721344133
  0.6342016761438952  0.4617307994700642  0.3221761306502710
  0.5711026052671173  0.5539815199448134  0.2828780976754717
  0.5322258655945235  0.3647020115715192  0.3492828919397910
  0.7082141228254564  0.4790843314268268  0.4102534827620940
  0.7079230943469487  0.5879055321982587  0.4607936921107382
  0.4620716137486922  0.5389401017805595  0.3149161817124921
  0.6403970866639180  0.5696917554009624  0.3710499537606107
  0.4352359824568353  0.4274181113535536  0.3355470694384289
  0.7144045737259541  0.3882166506262595  0.4807834132889575
  0.5397124546072306  0.4872102758665657  0.3850424806751367
  0.6184291829545554  0.3980853281944570  0.4178386131925189
  0.7142005157293190  0.4953746074216062  0.5313533997124811
  0.5230816560953181  0.3328153749254897  0.4581568867509291
  0.4276184006909303  0.3335166513626082  0.3972232595578168
  0.5290125610499208  0.6143500443084542  0.3724994499839731
  0.6003828040987210  0.6359592666452820  0.4619089231080892
  0.6173930401262832  0.5139541451549855  0.4722711146222566
  0.6133475088155576  0.3549409367263424  0.5241999876717574
  0.4157846324147660  0.5975105051855929  0.4086634318667942
  0.6493213669310128  0.5944902668709174  0.5611537289541340
  0.4191247729235112  0.3837019610303770  0.5025865013135339
  0.3570562067289992  0.5108965222351070  0.3476683377968841
  0.4322501110144303  0.4850316488046971  0.4404040594722305
  0.6937858289730772  0.4000127221320200  0.5933365199538333
  0.3438512108532010  0.4186739199820276  0.4204416865326295
  0.5100574226182287  0.5604839969231350  0.4776021027994869
  0.5317658852476418  0.4411310334613779  0.4954283305210107
  0.5592708048799233  0.5243770499781577  0.5751074884928973
  0.3225752126194825  0.5393336132259881  0.4509094152921970
  0.5399781966684141  0.6469597948358806  0.5634754993385330
  0.5008671959276859  0.3505537967739850  0.5733458552352814
  0.5827182014383442  0.4161070923930758  0.6165425375743196
  0.4828744596999919  0.6739231715416365  0.4635901616721763
  0.6553481760947781  0.5038525592922741  0.6360539341724453
  0.3833116152841326  0.3970674707925624  0.6247145213228195
  0.5826015002481154  0.6008083848701435  0.6608026928680318
  0.4063362184797264  0.5584191857390802  0.5326294707783219
  0.3389585842973316  0.4591181353970780  0.5342355889960275
  0.3553424353407209  0.6524635033092474  0.4942960031965644
  0.4594142111840424  0.4658872569943243  0.5848416504034384
  0.4664880957023491  0.5716625549758922  0.6308760393692774
  0.5485074419484220  0.4927255897203036  0.6929291577893500
  0.4869908196704587  0.3941218266496773  0.6792366075759587
  0.4369714091534423  0.6965816033667410  0.5637891347468044
  0.2879026505543890  0.5636866509394417  0.5552335784658241
  0.4802657157904587  0.6753662750372600  0.6676522824672023
  0.3571366664445232  0.6349739108440549  0.6130559490686838
  0.3555235296612275  0.5153793168790670  0.6352247348296016
  0.5009908189152689  0.5848484860341738  0.7426816757925783
  0.4341652276170441  0.4886045621308150  0.7134799898974763
  0.3914243431940493  0.6005438565024601  0.7146611011408109
 
  0.00000000E+00  0.00000000E+00  0.00000000E+00
  0.00000000E+00  0.00000000E+00  0.00000000E+00
  0.00000000E+00  0.00000000E+00  0.00000000E+00
  0.00000000E+00  0.00000000E+00  0.00000000E+00
  0.00000000E+00  0.00000000E+00  0.00000000E+00
  0.00000000E+00  0.00000000E+00  0.00000000E+00
  0.00000000E+00  0.00000000E+00  0.00000000E+00
  0.00000000E+00  0.00000000E+00  0.00000000E+00
  0.00000000E+00  0.00000000E+00  0.00000000E+00
  0.00000000E+00  0.00000000E+00  0.00000000E+00
  0.00000000E+00  0.00000000E+00  0.00000000E+00
  0.00000000E+00  0.00000000E+00  0.00000000E+00
  0.00000000E+00  0.00000000E+00  0.00000000E+00
  0.00000000E+00  0.00000000E+00  0.00000000E+00
  0.00000000E+00  0.00000000E+00  0.00000000E+00
  0.00000000E+00  0.00000000E+00  0.00000000E+00
  0.00000000E+00  0.00000000E+00  0.00000000E+00
  0.00000000E+00  0.00000000E+00  0.00000000E+00
  0.00000000E+00  0.00000000E+00  0.00000000E+00
  0.00000000E+00  0.00000000E+00  0.00000000E+00
  0.00000000E+00  0.00000000E+00  0.00000000E+00
  0.00000000E+00  0.00000000E+00  0.00000000E+00
  0.00000000E+00  0.00000000E+00  0.00000000E+00
  0.00000000E+00  0.00000000E+00  0.00000000E+00
  0.00000000E+00  0.00000000E+00  0.00000000E+00
  0.00000000E+00  0.00000000E+00  0.00000000E+00
  0.00000000E+00  0.00000000E+00  0.00000000E+00
  0.00000000E+00  0.00000000E+00  0.00000000E+00
  0.00000000E+00  0.00000000E+00  0.00000000E+00
  0.00000000E+00  0.00000000E+00  0.00000000E+00
  0.00000000E+00  0.00000000E+00  0.00000000E+00
  0.00000000E+00  0.00000000E+00  0.00000000E+00
  0.00000000E+00  0.00000000E+00  0.00000000E+00
  0.00000000E+00  0.00000000E+00  0.00000000E+00
  0.00000000E+00  0.00000000E+00  0.00000000E+00
  0.00000000E+00  0.00000000E+00  0.00000000E+00
  0.00000000E+00  0.00000000E+00  0.00000000E+00
  0.00000000E+00  0.00000000E+00  0.00000000E+00
  0.00000000E+00  0.00000000E+00  0.00000000E+00
  0.00000000E+00  0.00000000E+00  0.00000000E+00
  0.00000000E+00  0.00000000E+00  0.00000000E+00
  0.00000000E+00  0.00000000E+00  0.00000000E+00
  0.00000000E+00  0.00000000E+00  0.00000000E+00
  0.00000000E+00  0.00000000E+00  0.00000000E+00
  0.00000000E+00  0.00000000E+00  0.00000000E+00
  0.00000000E+00  0.00000000E+00  0.00000000E+00
  0.00000000E+00  0.00000000E+00  0.00000000E+00
  0.00000000E+00  0.00000000E+00  0.00000000E+00
  0.00000000E+00  0.00000000E+00  0.00000000E+00
  0.00000000E+00  0.00000000E+00  0.00000000E+00
  0.00000000E+00  0.00000000E+00  0.00000000E+00
  0.00000000E+00  0.00000000E+00  0.00000000E+00
