Be13, -29.71261603 <s> Ni </s>          
   1.00000000000000     
    18.1328748527911010    0.0000000000000000    0.0000000000000000
     0.0000000000000000   18.1328748527911010    0.0000000000000000
     0.0000000000000000    0.0000000000000000   18.1328748527911010
   Ni
    13
Direct
  0.4611980315679598  0.4421809633770047  0.4271072860615701
  0.6036054563640362  0.5064259841066785  0.4133444457653197
  0.5916892056080086  0.3843526178874136  0.5119189795210246
  0.4698924960580209  0.6014959193166017  0.4261949889048633
  0.6116168221912418  0.6455098385585190  0.4959186893391493
  0.3645287433888234  0.5241864776055188  0.5227804009730658
  0.4714570207661814  0.6770048595534773  0.5738666027135191
  0.6783378142566348  0.5098709458556349  0.5597347657736824
  0.6030332719191648  0.7594730177825614  0.6038654816799304
  0.4451433329174759  0.3779740663672789  0.5700917560685151
  0.5118485780866862  0.5226079045505836  0.5664949090436506
  0.5985538477833739  0.6153896249839398  0.6601196887842904
  0.5844378201964765  0.4288702211589017  0.6639044464755121
 
  0.00000000E+00  0.00000000E+00  0.00000000E+00
  0.00000000E+00  0.00000000E+00  0.00000000E+00
  0.00000000E+00  0.00000000E+00  0.00000000E+00
  0.00000000E+00  0.00000000E+00  0.00000000E+00
  0.00000000E+00  0.00000000E+00  0.00000000E+00
  0.00000000E+00  0.00000000E+00  0.00000000E+00
  0.00000000E+00  0.00000000E+00  0.00000000E+00
  0.00000000E+00  0.00000000E+00  0.00000000E+00
  0.00000000E+00  0.00000000E+00  0.00000000E+00
  0.00000000E+00  0.00000000E+00  0.00000000E+00
  0.00000000E+00  0.00000000E+00  0.00000000E+00
  0.00000000E+00  0.00000000E+00  0.00000000E+00
  0.00000000E+00  0.00000000E+00  0.00000000E+00
