Cu16, -41.64877722 <s> Ag </s>          
   1.00000000000000     
    19.3776952946597802    0.0000000000000000    0.0000000000000000
     0.0000000000000000   19.3776952946597802    0.0000000000000000
     0.0000000000000000    0.0000000000000000   19.3776952946597802
   Ag
    16
Direct
  0.4909104076436512  0.5130825689539718  0.6589233070607774
  0.5300063283058358  0.4950028889190634  0.4267812655628358
  0.5258983706508914  0.5988178072780951  0.5395552047757532
  0.4334690610209744  0.5999991807153308  0.4297821263628690
  0.5562790573275580  0.4386722832795407  0.5532958868347509
  0.6344670479357855  0.5244720162756721  0.6413773294541549
  0.4223731788586962  0.4953159280722714  0.5282098642476956
  0.6179076958599874  0.7218286501956733  0.7692623866418002
  0.5634915474664624  0.5902308478083406  0.7509057124902218
  0.7332676706104387  0.6153249822102266  0.5913508842132177
  0.5749728330988891  0.6254624392512291  0.3914254064611515
  0.6416856305616665  0.6840570977923998  0.5010706939566634
  0.6024321020957473  0.6716476032022261  0.6378391690635952
  0.4370745521066066  0.3881684971521703  0.6207032190815072
  0.6490048403231394  0.5372123163375789  0.4944914577060176
  0.7051454280182657  0.6135466120649610  0.7301755630217622
 
  0.00000000E+00  0.00000000E+00  0.00000000E+00
  0.00000000E+00  0.00000000E+00  0.00000000E+00
  0.00000000E+00  0.00000000E+00  0.00000000E+00
  0.00000000E+00  0.00000000E+00  0.00000000E+00
  0.00000000E+00  0.00000000E+00  0.00000000E+00
  0.00000000E+00  0.00000000E+00  0.00000000E+00
  0.00000000E+00  0.00000000E+00  0.00000000E+00
  0.00000000E+00  0.00000000E+00  0.00000000E+00
  0.00000000E+00  0.00000000E+00  0.00000000E+00
  0.00000000E+00  0.00000000E+00  0.00000000E+00
  0.00000000E+00  0.00000000E+00  0.00000000E+00
  0.00000000E+00  0.00000000E+00  0.00000000E+00
  0.00000000E+00  0.00000000E+00  0.00000000E+00
  0.00000000E+00  0.00000000E+00  0.00000000E+00
  0.00000000E+00  0.00000000E+00  0.00000000E+00
  0.00000000E+00  0.00000000E+00  0.00000000E+00
