Al11, -29.58302731 <s> Pd </s>          
   1.00000000000000     
    18.4795929437270594    0.0000000000000000    0.0000000000000000
     0.0000000000000000   18.4795929437270594    0.0000000000000000
     0.0000000000000000    0.0000000000000000   18.4795929437270594
   Pd
    11
Direct
  0.5141975680025225  0.6247826601929565  0.4766977783204568
  0.3887423510397500  0.5459309729020168  0.4901058400081209
  0.6202687215729324  0.5250330089993480  0.4337238179939251
  0.4570546121224920  0.6009459419611385  0.6070411828035238
  0.4849074854936287  0.5155425919980812  0.3910259366476063
  0.4135630656392552  0.4648323394039400  0.6136430694093339
  0.4661957565830500  0.3986487659324021  0.4664723809841543
  0.6115130469331265  0.3948834626383985  0.4957735476227189
  0.5306391399933366  0.4980530203446719  0.5433070900828575
  0.5698282419407614  0.4057565628147217  0.3625103028802832
  0.3355029584889250  0.4179848434995226  0.5100278064886019
 
  0.00000000E+00  0.00000000E+00  0.00000000E+00
  0.00000000E+00  0.00000000E+00  0.00000000E+00
  0.00000000E+00  0.00000000E+00  0.00000000E+00
  0.00000000E+00  0.00000000E+00  0.00000000E+00
  0.00000000E+00  0.00000000E+00  0.00000000E+00
  0.00000000E+00  0.00000000E+00  0.00000000E+00
  0.00000000E+00  0.00000000E+00  0.00000000E+00
  0.00000000E+00  0.00000000E+00  0.00000000E+00
  0.00000000E+00  0.00000000E+00  0.00000000E+00
  0.00000000E+00  0.00000000E+00  0.00000000E+00
  0.00000000E+00  0.00000000E+00  0.00000000E+00
