Ba13, -15.36841178 <s> Pd </s>          
   1.00000000000000     
    23.2881921315834113    0.0000000000000000    0.0000000000000000
     0.0000000000000000   23.2881921315834113    0.0000000000000000
     0.0000000000000000    0.0000000000000000   23.2881921315834113
   Pd
    13
Direct
  0.4086225392219213  0.2687550816742747  0.3266208278638927
  0.2952565768946362  0.2740727399822229  0.3046638762718288
  0.3757768020403001  0.3443286219137016  0.2441430975421468
  0.3310268879384821  0.3646416153532609  0.4674219287388612
  0.4307522851587280  0.3200081076699842  0.4302932548496095
  0.2878148728187359  0.4496443461282376  0.3777236494364586
  0.3555861187436677  0.3656275273379320  0.3586647941626532
  0.2685622066941728  0.3897116547959592  0.2815507371744159
  0.2480247164958677  0.3401433748277102  0.3870012899441412
  0.3675754261341639  0.4505043943838259  0.2897769621843165
  0.3309157800052652  0.2625790442784081  0.4131398759049951
  0.4575282835208691  0.3746094989432496  0.3191412943727201
  0.2776320685917604  0.3103126208902504  0.2034520398613082
 
  0.00000000E+00  0.00000000E+00  0.00000000E+00
  0.00000000E+00  0.00000000E+00  0.00000000E+00
  0.00000000E+00  0.00000000E+00  0.00000000E+00
  0.00000000E+00  0.00000000E+00  0.00000000E+00
  0.00000000E+00  0.00000000E+00  0.00000000E+00
  0.00000000E+00  0.00000000E+00  0.00000000E+00
  0.00000000E+00  0.00000000E+00  0.00000000E+00
  0.00000000E+00  0.00000000E+00  0.00000000E+00
  0.00000000E+00  0.00000000E+00  0.00000000E+00
  0.00000000E+00  0.00000000E+00  0.00000000E+00
  0.00000000E+00  0.00000000E+00  0.00000000E+00
  0.00000000E+00  0.00000000E+00  0.00000000E+00
  0.00000000E+00  0.00000000E+00  0.00000000E+00
