Ru13, -723.0 <s> Pd </s>                
   1.00000000000000     
    18.8515540000000001    0.0000000000000000    0.0000000000000000
     0.0000000000000000   18.8515540000000001    0.0000000000000000
     0.0000000000000000    0.0000000000000000   18.8515540000000001
   Pd
    13
Direct
  0.4042342552173635  0.4318720121403659  0.3448618969552076
  0.4227146472117266  0.4314804906515090  0.4789621775444348
  0.4425697542689280  0.4309058945689252  0.6146250156004306
  0.5340904437088302  0.4329067011691714  0.3910032098808893
  0.5560547953583231  0.4331857525111561  0.5307209798026050
  0.5703221577864724  0.4322788648338997  0.6658140705145752
  0.4033532413093061  0.5675126969019838  0.3451416755364470
  0.4218421833142165  0.5676774751307830  0.4792380583749247
  0.4417273709079432  0.5679477614492725  0.6149002887646190
  0.5332298369137985  0.5679234183238465  0.3912750573676002
  0.5552248988775509  0.5673663678849242  0.5309660374955613
  0.5694902394864729  0.5679734904092473  0.6660710152658356
  0.6451461780884294  0.5009690789236816  0.4464205119980828
 
  0.00000000E+00  0.00000000E+00  0.00000000E+00
  0.00000000E+00  0.00000000E+00  0.00000000E+00
  0.00000000E+00  0.00000000E+00  0.00000000E+00
  0.00000000E+00  0.00000000E+00  0.00000000E+00
  0.00000000E+00  0.00000000E+00  0.00000000E+00
  0.00000000E+00  0.00000000E+00  0.00000000E+00
  0.00000000E+00  0.00000000E+00  0.00000000E+00
  0.00000000E+00  0.00000000E+00  0.00000000E+00
  0.00000000E+00  0.00000000E+00  0.00000000E+00
  0.00000000E+00  0.00000000E+00  0.00000000E+00
  0.00000000E+00  0.00000000E+00  0.00000000E+00
  0.00000000E+00  0.00000000E+00  0.00000000E+00
  0.00000000E+00  0.00000000E+00  0.00000000E+00
