Pt10, -42.04239468 <s> Pd </s>          
   1.00000000000000     
    18.9309505749777216    0.0000000000000000    0.0000000000000000
     0.0000000000000000   18.9309505749777216    0.0000000000000000
     0.0000000000000000    0.0000000000000000   18.9309505749777216
   Pd
    10
Direct
  0.4540023669487631  0.4236181871861617  0.5686731817745017
  0.5317312807866953  0.4034132383040118  0.3972915924194535
  0.4110557597112836  0.4485032245735857  0.4450664195488762
  0.5750557439814352  0.3803053315144341  0.5206189708840134
  0.3238799867035405  0.4694998549432006  0.5512518751284057
  0.4245087670823798  0.5568889486146200  0.5336601005317451
  0.5646144747522230  0.5138310378247372  0.5488320431005714
  0.5224591185067423  0.5372725281907528  0.4252774524914772
  0.6409063932062663  0.5940500840043582  0.4666144272840461
  0.5254243025522610  0.6464528114259304  0.5163125298175107
 
  0.00000000E+00  0.00000000E+00  0.00000000E+00
  0.00000000E+00  0.00000000E+00  0.00000000E+00
  0.00000000E+00  0.00000000E+00  0.00000000E+00
  0.00000000E+00  0.00000000E+00  0.00000000E+00
  0.00000000E+00  0.00000000E+00  0.00000000E+00
  0.00000000E+00  0.00000000E+00  0.00000000E+00
  0.00000000E+00  0.00000000E+00  0.00000000E+00
  0.00000000E+00  0.00000000E+00  0.00000000E+00
  0.00000000E+00  0.00000000E+00  0.00000000E+00
  0.00000000E+00  0.00000000E+00  0.00000000E+00
