Ru13, -723.0 <s> Cu </s>                
   1.00000000000000     
    18.8515540000000001    0.0000000000000000    0.0000000000000000
     0.0000000000000000   18.8515540000000001    0.0000000000000000
     0.0000000000000000    0.0000000000000000   18.8515540000000001
   Cu
    13
Direct
  0.4142030904891797  0.4360606760293399  0.3542475965281980
  0.4296926878264447  0.4350196956589383  0.4804017577630859
  0.4487511079474858  0.4367511431723117  0.6076098240927384
  0.5300178298024242  0.4368999014025494  0.3989734239619059
  0.5503195272123664  0.4355919449558038  0.5294475191137208
  0.5652390806674094  0.4371518438148496  0.6540702286419099
  0.4134498135686225  0.5634544808071098  0.3545863177742075
  0.4289836942593612  0.5643554777029398  0.4807208753973544
  0.4480843777864443  0.5623887608269353  0.6078766036235317
  0.5292844236605554  0.5637084710678870  0.3991985681318646
  0.5496418836047985  0.5648841078156190  0.5296616695394373
  0.5645487519753928  0.5630101097384348  0.6543103931928512
  0.6277837290380082  0.5007233826842686  0.4488952265622007
 
  0.00000000E+00  0.00000000E+00  0.00000000E+00
  0.00000000E+00  0.00000000E+00  0.00000000E+00
  0.00000000E+00  0.00000000E+00  0.00000000E+00
  0.00000000E+00  0.00000000E+00  0.00000000E+00
  0.00000000E+00  0.00000000E+00  0.00000000E+00
  0.00000000E+00  0.00000000E+00  0.00000000E+00
  0.00000000E+00  0.00000000E+00  0.00000000E+00
  0.00000000E+00  0.00000000E+00  0.00000000E+00
  0.00000000E+00  0.00000000E+00  0.00000000E+00
  0.00000000E+00  0.00000000E+00  0.00000000E+00
  0.00000000E+00  0.00000000E+00  0.00000000E+00
  0.00000000E+00  0.00000000E+00  0.00000000E+00
  0.00000000E+00  0.00000000E+00  0.00000000E+00
