Ru13, -723.0 <s> Cu </s>
  1.00000000000000
    18.85155400000000     0.00000000000000     0.00000000000000
     0.00000000000000    18.85155400000000     0.00000000000000
     0.00000000000000     0.00000000000000    18.85155400000000
  Cu    
  13    
Direct
     0.41220653597317      0.44141373952956      0.35571337989420   
     0.43110570949540      0.44276436743650      0.47754232725761   
     0.45008441552784      0.44226534291465      0.60815775971431   
     0.52992238553401      0.44126429168407      0.40120358416267   
     0.54723737118649      0.44220682571264      0.52922980852620   
     0.56454945642113      0.44223140293749      0.65323992098893   
     0.41147054222544      0.55802213832120      0.35594576951297   
     0.43039470004871      0.55648608721067      0.47776647358358   
     0.44938902762986      0.55667883778564      0.60838607857120   
     0.52918298252320      0.55948420333458      0.40143205567313   
     0.54651715164104      0.55825625801377      0.52944922259148   
     0.56385483179099      0.55799140406901      0.65346691684821   
     0.63408488784121      0.50093509672721      0.44846670699851   
