Al19, -56.22919614 <s> Ag </s>          
   1.00000000000000     
    21.1440760074286196    0.0000000000000000    0.0000000000000000
     0.0000000000000000   21.1440760074286196    0.0000000000000000
     0.0000000000000000    0.0000000000000000   21.1440760074286196
   Ag
    19
Direct
  0.6497260679262817  0.6259053438660188  0.5110838981992556
  0.5475916066802557  0.6092813226593026  0.4307611110892415
  0.5399876255540222  0.6940641398315102  0.5345783861934617
  0.6309234253334574  0.4990717024308807  0.4849613385956526
  0.5386268124566700  0.5864908664016409  0.6094394932160258
  0.5491158124870901  0.4866023317040448  0.3785028665960459
  0.3648445859938011  0.4959600909660544  0.5021530701827073
  0.5577973215969815  0.3850192254590947  0.4790330371563766
  0.4280884171743137  0.5559357221817711  0.3992996280767906
  0.6603731059170632  0.5379711803733233  0.6102755299806784
  0.3427529604845351  0.3622048651508534  0.4790044357006254
  0.4550227453112481  0.2987328986020473  0.4629075826749923
  0.4985651664766723  0.5068209966939092  0.4998215255675746
  0.4410663952835209  0.4199383566425809  0.4135736753891203
  0.6326603825281935  0.6757663886902534  0.6290641987536157
  0.5616666010999750  0.4519536849524139  0.5995986870363978
  0.4466046492554898  0.3941254227511927  0.5551984783206808
  0.4324650835816157  0.6176560698987830  0.5177376535289606
  0.4363679922121846  0.5097383836809273  0.6176833802058564
 
  0.00000000E+00  0.00000000E+00  0.00000000E+00
  0.00000000E+00  0.00000000E+00  0.00000000E+00
  0.00000000E+00  0.00000000E+00  0.00000000E+00
  0.00000000E+00  0.00000000E+00  0.00000000E+00
  0.00000000E+00  0.00000000E+00  0.00000000E+00
  0.00000000E+00  0.00000000E+00  0.00000000E+00
  0.00000000E+00  0.00000000E+00  0.00000000E+00
  0.00000000E+00  0.00000000E+00  0.00000000E+00
  0.00000000E+00  0.00000000E+00  0.00000000E+00
  0.00000000E+00  0.00000000E+00  0.00000000E+00
  0.00000000E+00  0.00000000E+00  0.00000000E+00
  0.00000000E+00  0.00000000E+00  0.00000000E+00
  0.00000000E+00  0.00000000E+00  0.00000000E+00
  0.00000000E+00  0.00000000E+00  0.00000000E+00
  0.00000000E+00  0.00000000E+00  0.00000000E+00
  0.00000000E+00  0.00000000E+00  0.00000000E+00
  0.00000000E+00  0.00000000E+00  0.00000000E+00
  0.00000000E+00  0.00000000E+00  0.00000000E+00
  0.00000000E+00  0.00000000E+00  0.00000000E+00
