Li10, -12.8496064 <s> Ni </s>           
   1.00000000000000     
    19.8085691958656298    0.0000000000000000    0.0000000000000000
     0.0000000000000000   19.8085691958656298    0.0000000000000000
     0.0000000000000000    0.0000000000000000   19.8085691958656298
   Ni
    10
Direct
  0.4524910954738486  0.4814484882636351  0.3659493459843550
  0.3595466676651990  0.5417131470296223  0.4029067512974083
  0.3466161847364962  0.4338157353725975  0.3514795382973921
  0.4478730073871648  0.4999020346141070  0.4776220826675704
  0.5215058032652677  0.4105995483641814  0.4294023060522633
  0.4456907769815311  0.3659412574674841  0.3464977667240937
  0.4776930738806088  0.2965661130322288  0.4352563626835272
  0.4366233898625232  0.3848496736817359  0.5000309818789583
  0.3415576029067561  0.4442567557523850  0.4646075054463394
  0.3650872706226955  0.3355921192040998  0.4209322317501762
 
  0.00000000E+00  0.00000000E+00  0.00000000E+00
  0.00000000E+00  0.00000000E+00  0.00000000E+00
  0.00000000E+00  0.00000000E+00  0.00000000E+00
  0.00000000E+00  0.00000000E+00  0.00000000E+00
  0.00000000E+00  0.00000000E+00  0.00000000E+00
  0.00000000E+00  0.00000000E+00  0.00000000E+00
  0.00000000E+00  0.00000000E+00  0.00000000E+00
  0.00000000E+00  0.00000000E+00  0.00000000E+00
  0.00000000E+00  0.00000000E+00  0.00000000E+00
  0.00000000E+00  0.00000000E+00  0.00000000E+00
