Ag12, -927.0 <s> Cu </s>                
   1.00000000000000     
    20.5893079999999991    0.0000000000000000    0.0000000000000000
     0.0000000000000000   20.5893079999999991    0.0000000000000000
     0.0000000000000000    0.0000000000000000   20.5893079999999991
   Cu
    12
Direct
  0.5000000000000000  0.6579976640227596  0.4211756681829534
  0.5593112735816427  0.4419253754936336  0.4398234578476218
  0.5593112735816427  0.5580746245063666  0.4398234578476218
  0.5581118466343927  0.5000000000000000  0.5428214499337463
  0.5000000000000000  0.6102198272239016  0.5272498780579548
  0.4406887264183572  0.5580746245063666  0.4398234578476218
  0.4406887264183572  0.4419253754936336  0.4398234578476218
  0.4418881533656074  0.5000000000000000  0.5428214499337463
  0.5000000000000000  0.3420023359772406  0.4211756681829534
  0.5000000000000000  0.4399429481236437  0.6291060819205482
  0.5000000000000000  0.3897801727760983  0.5272498780579548
  0.5000000000000000  0.5600570518763562  0.6291060819205482
 
  0.00000000E+00  0.00000000E+00  0.00000000E+00
  0.00000000E+00  0.00000000E+00  0.00000000E+00
  0.00000000E+00  0.00000000E+00  0.00000000E+00
  0.00000000E+00  0.00000000E+00  0.00000000E+00
  0.00000000E+00  0.00000000E+00  0.00000000E+00
  0.00000000E+00  0.00000000E+00  0.00000000E+00
  0.00000000E+00  0.00000000E+00  0.00000000E+00
  0.00000000E+00  0.00000000E+00  0.00000000E+00
  0.00000000E+00  0.00000000E+00  0.00000000E+00
  0.00000000E+00  0.00000000E+00  0.00000000E+00
  0.00000000E+00  0.00000000E+00  0.00000000E+00
  0.00000000E+00  0.00000000E+00  0.00000000E+00
