Ag12, -927.0 <s> Cu </s>
  1.00000000000000
    20.58930800000000     0.00000000000000     0.00000000000000
     0.00000000000000    20.58930800000000     0.00000000000000
     0.00000000000000     0.00000000000000    20.58930800000000
  Cu    
  12    
Direct
     0.50000000000000      0.66073899914401      0.41886001848881   
     0.56136587593544      0.44105440907449      0.43982165977242   
     0.56136587593544      0.55894559092551      0.43982165977242   
     0.56033408738736      0.50000000000000      0.54357219609205   
     0.50000000000000      0.61552244814509      0.52793690161908   
     0.43863412406456      0.55894559092551      0.43982165977242   
     0.43863412406456      0.44105440907449      0.43982165977242   
     0.43966591261264      0.50000000000000      0.54357219609205   
     0.50000000000000      0.33926100085599      0.41886001848881   
     0.50000000000000      0.43687680492071      0.62998755804567   
     0.50000000000000      0.38447755185491      0.52793690161908   
     0.50000000000000      0.56312319507929      0.62998755804567   
