Pt11, -47.06937691 <s> Ni </s>          
   1.00000000000000     
    18.7737662266973793    0.0000000000000000    0.0000000000000000
     0.0000000000000000   18.7737662266973793    0.0000000000000000
     0.0000000000000000    0.0000000000000000   18.7737662266973793
   Ni
    11
Direct
  0.5833079811265549  0.4170066948478421  0.3786841775335838
  0.5604671529085202  0.4681670876170877  0.5203757520378978
  0.4786992499985597  0.5358556270059835  0.4021340719271366
  0.3412819239733461  0.5860175992744959  0.4510757012519344
  0.5685540872992854  0.3258821189482514  0.5077596554506965
  0.4625181004733908  0.4271921233607169  0.2901702517484468
  0.4429560468316810  0.3783513188191981  0.4358861001964544
  0.4480550424283952  0.3845813630735977  0.5887062471606085
  0.3426224510777174  0.4750625138270503  0.3463042982583193
  0.3222860208352092  0.4451656421003296  0.5035574094284064
  0.4326762632516686  0.5328110734786339  0.5599833538387256
 
  0.00000000E+00  0.00000000E+00  0.00000000E+00
  0.00000000E+00  0.00000000E+00  0.00000000E+00
  0.00000000E+00  0.00000000E+00  0.00000000E+00
  0.00000000E+00  0.00000000E+00  0.00000000E+00
  0.00000000E+00  0.00000000E+00  0.00000000E+00
  0.00000000E+00  0.00000000E+00  0.00000000E+00
  0.00000000E+00  0.00000000E+00  0.00000000E+00
  0.00000000E+00  0.00000000E+00  0.00000000E+00
  0.00000000E+00  0.00000000E+00  0.00000000E+00
  0.00000000E+00  0.00000000E+00  0.00000000E+00
  0.00000000E+00  0.00000000E+00  0.00000000E+00
