Pt38, -188.96248286 <s> Ag </s>         
   1.00000000000000     
    22.6552591266760004    0.0000000000000000    0.0000000000000000
     0.0000000000000000   22.6552591266760004    0.0000000000000000
     0.0000000000000000    0.0000000000000000   22.6552591266760004
   Ag
    38
Direct
  0.3598068103965447  0.5900522024933711  0.6869711604338405
  0.4748664947688033  0.6113963212890053  0.6571924925337028
  0.3985092061212284  0.5709815358329844  0.5676538140204765
  0.4893857780503463  0.6569633856407648  0.5457546870806481
  0.3996829742648719  0.6438038381534144  0.4623857953055502
  0.4527589369682463  0.5280574095453364  0.7459986291297204
  0.5884956076376754  0.6593430019972656  0.6335124380713835
  0.3914359203322358  0.4772867401692655  0.6533300034558858
  0.4146380573609273  0.6895254834490275  0.3447382570987573
  0.5012536917803957  0.7096155238806806  0.4340502141978751
  0.3329317441127363  0.5404015844951097  0.4684030604064775
  0.5688160091823741  0.5614458154820294  0.5675969155657868
  0.5672152021669844  0.5436669852918234  0.6976478646382700
  0.5919385504629325  0.7200206468148763  0.5223641596520457
  0.3723030058615899  0.4461526216727683  0.5336290899165598
  0.4840324678637217  0.5486624313498707  0.4713722890751118
  0.3884154127581670  0.5696007061345614  0.3639069240479776
  0.5089287721777762  0.4325198765977211  0.6874229911099722
  0.4322417268213963  0.3662558633860282  0.6113509494655690
  0.4868225924815130  0.4718627090141479  0.5743433375955886
  0.6760484374207163  0.6287938316801420  0.5346419429324066
  0.6751669197808962  0.5653019650540724  0.6410782519101219
  0.6135173395762845  0.4570711183814633  0.6214561617714376
  0.5049274601319520  0.6104909307988262  0.3594592646401946
  0.5747219427493930  0.4599070152792685  0.4924382207198096
  0.5882549321122428  0.6211591850331395  0.4490289538006898
  0.4105299535335829  0.4563931142253401  0.4134495918139144
  0.5526625010611208  0.3573604211696719  0.5803847304005866
  0.4765499696040505  0.4981105834731273  0.3150832990331209
  0.5859926057337603  0.5205158809496920  0.3783675183164635
  0.6950381114914195  0.5648744046999508  0.4255831839785012
  0.4675443158413707  0.3754181607580629  0.4894250432436246
  0.6900237846458362  0.5054207352828081  0.5317795057836288
  0.6703763569121242  0.4393267614665682  0.4225346620247321
  0.5248310665090770  0.4126596760364429  0.3845390409972293
  0.6718219634803663  0.3847411450540594  0.5371794046116473
  0.6337139983060662  0.2691420171944954  0.5420341119184446
  0.5888196198881277  0.3407186111217057  0.4569322796511431
 
  0.00000000E+00  0.00000000E+00  0.00000000E+00
  0.00000000E+00  0.00000000E+00  0.00000000E+00
  0.00000000E+00  0.00000000E+00  0.00000000E+00
  0.00000000E+00  0.00000000E+00  0.00000000E+00
  0.00000000E+00  0.00000000E+00  0.00000000E+00
  0.00000000E+00  0.00000000E+00  0.00000000E+00
  0.00000000E+00  0.00000000E+00  0.00000000E+00
  0.00000000E+00  0.00000000E+00  0.00000000E+00
  0.00000000E+00  0.00000000E+00  0.00000000E+00
  0.00000000E+00  0.00000000E+00  0.00000000E+00
  0.00000000E+00  0.00000000E+00  0.00000000E+00
  0.00000000E+00  0.00000000E+00  0.00000000E+00
  0.00000000E+00  0.00000000E+00  0.00000000E+00
  0.00000000E+00  0.00000000E+00  0.00000000E+00
  0.00000000E+00  0.00000000E+00  0.00000000E+00
  0.00000000E+00  0.00000000E+00  0.00000000E+00
  0.00000000E+00  0.00000000E+00  0.00000000E+00
  0.00000000E+00  0.00000000E+00  0.00000000E+00
  0.00000000E+00  0.00000000E+00  0.00000000E+00
  0.00000000E+00  0.00000000E+00  0.00000000E+00
  0.00000000E+00  0.00000000E+00  0.00000000E+00
  0.00000000E+00  0.00000000E+00  0.00000000E+00
  0.00000000E+00  0.00000000E+00  0.00000000E+00
  0.00000000E+00  0.00000000E+00  0.00000000E+00
  0.00000000E+00  0.00000000E+00  0.00000000E+00
  0.00000000E+00  0.00000000E+00  0.00000000E+00
  0.00000000E+00  0.00000000E+00  0.00000000E+00
  0.00000000E+00  0.00000000E+00  0.00000000E+00
  0.00000000E+00  0.00000000E+00  0.00000000E+00
  0.00000000E+00  0.00000000E+00  0.00000000E+00
  0.00000000E+00  0.00000000E+00  0.00000000E+00
  0.00000000E+00  0.00000000E+00  0.00000000E+00
  0.00000000E+00  0.00000000E+00  0.00000000E+00
  0.00000000E+00  0.00000000E+00  0.00000000E+00
  0.00000000E+00  0.00000000E+00  0.00000000E+00
  0.00000000E+00  0.00000000E+00  0.00000000E+00
  0.00000000E+00  0.00000000E+00  0.00000000E+00
  0.00000000E+00  0.00000000E+00  0.00000000E+00
