Al47, -149.4160446 <s> Ag </s>
  1.00000000000000
    23.59278071554017     0.00000000000000     0.00000000000000
     0.00000000000000    23.59278071554017     0.00000000000000
     0.00000000000000     0.00000000000000    23.59278071554017
  Ag    
  47    
Direct
     0.44240176397701      0.36191741098273      0.62438956366413   
     0.49008940684841      0.34288761537345      0.51547195135495   
     0.37351163949092      0.34397117035146      0.52548200996920   
     0.60353561452489      0.36914148380612      0.50783206094374   
     0.67322479700586      0.34067277963995      0.59784229666487   
     0.61182587903744      0.39552834975322      0.68050314429316   
     0.50639171706816      0.43364435488899      0.71431797855168   
     0.55428568625390      0.31277493719481      0.60886543448592   
     0.33175863276872      0.42296602088473      0.60032817663987   
     0.42452778632508      0.38863869181642      0.42954943197093   
     0.42448188620976      0.48144493534935      0.64128089780679   
     0.54077684079836      0.38897126586461      0.40984696936221   
     0.44279603760361      0.45901240723652      0.52471033276106   
     0.64977635522873      0.43859994901152      0.41584779158980   
     0.33170236732901      0.45034022376733      0.48138287414190   
     0.71595331617037      0.40744249883417      0.50484306779447   
     0.48806550966086      0.55064806414347      0.71235450199328   
     0.64860841250187      0.45918477959552      0.58538802364122   
     0.56411989770617      0.48205562424824      0.49464768790451   
     0.59511635961073      0.51400041312884      0.67719063815592   
     0.53160770921663      0.43569040003914      0.59617094224267   
     0.35476668684388      0.53503555811209      0.56246985258404   
     0.46735473013497      0.41388969338160      0.32123619422312   
     0.61454129470600      0.56917071249231      0.57067444599110   
     0.49729875440033      0.56091114020934      0.58894369077399   
     0.36391433737420      0.47253597120192      0.37326363162023   
     0.39980070784517      0.60270083792404      0.64491203326360   
     0.58315589118101      0.47483098990782      0.32896754322367   
     0.46822446399304      0.66509788810653      0.72203287701823   
     0.48768484964128      0.49908323739614      0.40383877789446   
     0.69357038933852      0.52451281849093      0.49359667929833   
     0.39707845936845      0.55282021728941      0.45375267310974   
     0.38594986011466      0.48607435727262      0.26118961350596   
     0.56937950457145      0.62830874377600      0.66712692529436   
     0.51978566118284      0.58760111818535      0.47923412096206   
     0.41932849687706      0.63532303129187      0.52876449170551   
     0.61819628162306      0.55779464485679      0.40909419711347   
     0.49526823593963      0.51869245825149      0.27116829182572   
     0.47599053812321      0.69349073902340      0.60951542233172   
     0.58018695467397      0.67751310699112      0.55874272645911   
     0.41130762839045      0.57747578161781      0.33900988653989   
     0.53088324434664      0.59724563786432      0.34538488564273   
     0.44801189425957      0.66166948569485      0.41364895456545   
     0.66426128875436      0.64043018770224      0.48538972548967   
     0.49532284806989      0.73396953428557      0.49587116135917   
     0.57140992754358      0.67366536498894      0.41712207528831   
     0.61787598914559      0.75577517139095      0.48192983875906   
