Pt32, -153.30616718 <s> Ag </s>         
   1.00000000000000     
    23.6847258670149614    0.0000000000000000    0.0000000000000000
     0.0000000000000000   23.6847258670149614    0.0000000000000000
     0.0000000000000000    0.0000000000000000   23.6847258670149614
   Ag
    32
Direct
  0.6029743893701333  0.3978843353897468  0.3351785134506328
  0.6419742124295552  0.4129656079280389  0.4459647514879291
  0.5072301135131269  0.4638327655069548  0.3101057648937455
  0.5255981716807172  0.4188416750222818  0.4207444293747946
  0.5966650452868094  0.5068668579329734  0.3809218887408023
  0.4074016175389023  0.5308166198570456  0.2991755109539666
  0.6827212253871399  0.4297675658473387  0.5578190554015608
  0.4208030101554424  0.4633268662000531  0.3926889433185001
  0.5668121059615535  0.4370013197428568  0.5395060592240429
  0.4983278939624388  0.5700407543681590  0.3623788356424479
  0.4517310305620675  0.4462647012377941  0.5061972430909610
  0.6456723563824517  0.5202397815322053  0.4918592631809942
  0.4794464432327824  0.4075646203345214  0.6151420097765367
  0.5919410289236199  0.6157094941015068  0.4274804184296238
  0.3429463908477490  0.4839277640417401  0.4781004222747752
  0.3660091857532332  0.3752458347221362  0.6467470536984541
  0.4155253558287994  0.5654366108194631  0.5216775420236590
  0.3848632654302424  0.5753985033043232  0.4058101035576264
  0.4259010774428739  0.4494682255447592  0.7093899031857710
  0.6247963056371001  0.5160200907838824  0.6131554035129057
  0.6213819469150439  0.6182529691727618  0.5431045016001677
  0.3812565271712351  0.4773043917567031  0.5943107483480896
  0.4728482303116208  0.6445056899894166  0.4501951431029469
  0.4985393683086317  0.5231462758898417  0.5966279026186709
  0.4933358232030706  0.4576827427174022  0.7987655791889712
  0.5410127301327488  0.4878054600884081  0.6983779486858578
  0.5631234782527358  0.7092361898755122  0.4967141704943130
  0.5255340834470088  0.5372819453126682  0.4790780483201598
  0.6762893793268534  0.6234189393953701  0.6433103478307761
  0.5607418881748094  0.5999404896955030  0.6629006056622750
  0.5909904126809350  0.7035799117044912  0.6159101963907521
  0.5010475519842413  0.6366666454197943  0.5661033377729137
 
  0.00000000E+00  0.00000000E+00  0.00000000E+00
  0.00000000E+00  0.00000000E+00  0.00000000E+00
  0.00000000E+00  0.00000000E+00  0.00000000E+00
  0.00000000E+00  0.00000000E+00  0.00000000E+00
  0.00000000E+00  0.00000000E+00  0.00000000E+00
  0.00000000E+00  0.00000000E+00  0.00000000E+00
  0.00000000E+00  0.00000000E+00  0.00000000E+00
  0.00000000E+00  0.00000000E+00  0.00000000E+00
  0.00000000E+00  0.00000000E+00  0.00000000E+00
  0.00000000E+00  0.00000000E+00  0.00000000E+00
  0.00000000E+00  0.00000000E+00  0.00000000E+00
  0.00000000E+00  0.00000000E+00  0.00000000E+00
  0.00000000E+00  0.00000000E+00  0.00000000E+00
  0.00000000E+00  0.00000000E+00  0.00000000E+00
  0.00000000E+00  0.00000000E+00  0.00000000E+00
  0.00000000E+00  0.00000000E+00  0.00000000E+00
  0.00000000E+00  0.00000000E+00  0.00000000E+00
  0.00000000E+00  0.00000000E+00  0.00000000E+00
  0.00000000E+00  0.00000000E+00  0.00000000E+00
  0.00000000E+00  0.00000000E+00  0.00000000E+00
  0.00000000E+00  0.00000000E+00  0.00000000E+00
  0.00000000E+00  0.00000000E+00  0.00000000E+00
  0.00000000E+00  0.00000000E+00  0.00000000E+00
  0.00000000E+00  0.00000000E+00  0.00000000E+00
  0.00000000E+00  0.00000000E+00  0.00000000E+00
  0.00000000E+00  0.00000000E+00  0.00000000E+00
  0.00000000E+00  0.00000000E+00  0.00000000E+00
  0.00000000E+00  0.00000000E+00  0.00000000E+00
  0.00000000E+00  0.00000000E+00  0.00000000E+00
  0.00000000E+00  0.00000000E+00  0.00000000E+00
  0.00000000E+00  0.00000000E+00  0.00000000E+00
  0.00000000E+00  0.00000000E+00  0.00000000E+00
