Pt11, -46.90883332 <s> Pd </s>          
   1.00000000000000     
    18.5927535319742496    0.0000000000000000    0.0000000000000000
     0.0000000000000000   18.5927535319742496    0.0000000000000000
     0.0000000000000000    0.0000000000000000   18.5927535319742496
   Pd
    11
Direct
  0.3998689034230691  0.5084332037008683  0.4541392971580138
  0.3343452454214456  0.4470622745500108  0.5600733982649131
  0.4709140177744232  0.4666382852164657  0.5804461065443096
  0.5056463016734278  0.5908230455931346  0.5029799542630567
  0.4872036776300234  0.4041358370710186  0.4461640996041171
  0.5692289652617932  0.4767150216160365  0.3608087782419722
  0.6412083363676421  0.6167928321723535  0.5276288753090794
  0.4811834062326062  0.5801941742973376  0.3660838045163603
  0.4183520079904089  0.3405408095351182  0.5485560143889672
  0.5935609255266160  0.4879061760349313  0.4978261167691471
  0.5699819367774555  0.5516877969418985  0.6263566011375703
 
  0.00000000E+00  0.00000000E+00  0.00000000E+00
  0.00000000E+00  0.00000000E+00  0.00000000E+00
  0.00000000E+00  0.00000000E+00  0.00000000E+00
  0.00000000E+00  0.00000000E+00  0.00000000E+00
  0.00000000E+00  0.00000000E+00  0.00000000E+00
  0.00000000E+00  0.00000000E+00  0.00000000E+00
  0.00000000E+00  0.00000000E+00  0.00000000E+00
  0.00000000E+00  0.00000000E+00  0.00000000E+00
  0.00000000E+00  0.00000000E+00  0.00000000E+00
  0.00000000E+00  0.00000000E+00  0.00000000E+00
  0.00000000E+00  0.00000000E+00  0.00000000E+00
