Pt20, -93.35626321 <s> Ag </s>          
   1.00000000000000     
    19.7483940382822816    0.0000000000000000    0.0000000000000000
     0.0000000000000000   19.7483940382822816    0.0000000000000000
     0.0000000000000000    0.0000000000000000   19.7483940382822816
   Ag
    20
Direct
  0.6313383917764723  0.3617422822595692  0.6676814455084134
  0.6244724398447463  0.4986648157227075  0.6446024319021811
  0.6095316195341561  0.6322529959230240  0.6018691600601190
  0.5855395114132063  0.7611871288341199  0.5574268641881465
  0.5019594076878346  0.4165815107047178  0.6596616984918385
  0.6605089948493059  0.4194750381324299  0.4240736742939358
  0.6206520344065427  0.5281958829384674  0.5055943484418459
  0.5800707277452184  0.3961051431564463  0.5427331342113988
  0.5002543830197697  0.5422644428590598  0.5912119520245042
  0.4795860891808137  0.6732650022059588  0.5406762983827682
  0.6067642458168017  0.5458287598758482  0.3678795990509873
  0.5999569233665186  0.6602300718249505  0.4578988952945389
  0.5238043537358120  0.4339012097564918  0.4208924025593478
  0.3790508778243457  0.4872817737165869  0.6419510821754203
  0.4374675364338942  0.4213901458733710  0.5323173282312925
  0.4881149046802533  0.5757120251274949  0.4375446537045431
  0.4820932102271729  0.5043120464168280  0.3101683340327555
  0.3866285568126934  0.4775504862747740  0.4135279327383680
  0.3784787344189819  0.5758519018804091  0.5267692931363724
  0.3001801592815520  0.4609039042398702  0.5240338823228587
 
  0.00000000E+00  0.00000000E+00  0.00000000E+00
  0.00000000E+00  0.00000000E+00  0.00000000E+00
  0.00000000E+00  0.00000000E+00  0.00000000E+00
  0.00000000E+00  0.00000000E+00  0.00000000E+00
  0.00000000E+00  0.00000000E+00  0.00000000E+00
  0.00000000E+00  0.00000000E+00  0.00000000E+00
  0.00000000E+00  0.00000000E+00  0.00000000E+00
  0.00000000E+00  0.00000000E+00  0.00000000E+00
  0.00000000E+00  0.00000000E+00  0.00000000E+00
  0.00000000E+00  0.00000000E+00  0.00000000E+00
  0.00000000E+00  0.00000000E+00  0.00000000E+00
  0.00000000E+00  0.00000000E+00  0.00000000E+00
  0.00000000E+00  0.00000000E+00  0.00000000E+00
  0.00000000E+00  0.00000000E+00  0.00000000E+00
  0.00000000E+00  0.00000000E+00  0.00000000E+00
  0.00000000E+00  0.00000000E+00  0.00000000E+00
  0.00000000E+00  0.00000000E+00  0.00000000E+00
  0.00000000E+00  0.00000000E+00  0.00000000E+00
  0.00000000E+00  0.00000000E+00  0.00000000E+00
  0.00000000E+00  0.00000000E+00  0.00000000E+00
