Ti13, -78.49501898 <s> Pd </s>          
   1.00000000000000     
    19.8295935071815812    0.0000000000000000    0.0000000000000000
     0.0000000000000000   19.8295935071815812    0.0000000000000000
     0.0000000000000000    0.0000000000000000   19.8295935071815812
   Pd
    13
Direct
  0.6566704391714751  0.5290255152023279  0.5401480421093825
  0.6562898219197275  0.4446167909980733  0.4326967498892827
  0.5832308494229583  0.5548939705300316  0.4332185758791693
  0.5286315497779935  0.5680657718359650  0.5633007778786833
  0.5612528155891041  0.4406779882748368  0.5229918739113752
  0.5278964855004106  0.4320544822826686  0.3897839234369246
  0.4587768769501757  0.5201785684458975  0.4612084099459818
  0.4522165670899236  0.3740168084660713  0.4890716104323771
  0.4524968167593404  0.4584868027485858  0.5965086385964291
  0.3907987803498161  0.5717071332280197  0.5623890834552457
  0.3902221993579142  0.4342638308437183  0.3874492905347345
  0.3341483259563364  0.5519336219296491  0.4367266070213486
  0.3432644020484975  0.4499246054510297  0.5165592455836417
 
  0.00000000E+00  0.00000000E+00  0.00000000E+00
  0.00000000E+00  0.00000000E+00  0.00000000E+00
  0.00000000E+00  0.00000000E+00  0.00000000E+00
  0.00000000E+00  0.00000000E+00  0.00000000E+00
  0.00000000E+00  0.00000000E+00  0.00000000E+00
  0.00000000E+00  0.00000000E+00  0.00000000E+00
  0.00000000E+00  0.00000000E+00  0.00000000E+00
  0.00000000E+00  0.00000000E+00  0.00000000E+00
  0.00000000E+00  0.00000000E+00  0.00000000E+00
  0.00000000E+00  0.00000000E+00  0.00000000E+00
  0.00000000E+00  0.00000000E+00  0.00000000E+00
  0.00000000E+00  0.00000000E+00  0.00000000E+00
  0.00000000E+00  0.00000000E+00  0.00000000E+00
