Be7, -10.42099534 <s> Ag </s>           
   1.00000000000000     
    18.4416040475823486    0.0000000000000000    0.0000000000000000
     0.0000000000000000   18.4416040475823486    0.0000000000000000
     0.0000000000000000    0.0000000000000000   18.4416040475823486
   Ag
     7
Direct
  0.6202076735037289  0.6701200496544675  0.7502610855601011
  0.6853893245937910  0.7180905707186844  0.6244320654505361
  0.6003208186243260  0.5237520553449586  0.4986742224642389
  0.5959293058118457  0.5914074104304791  0.6302157134965559
  0.6018930347054472  0.6712477181180589  0.5071678134200157
  0.7312380646940675  0.6092146573184296  0.5292126232322253
  0.5677266752680968  0.6208162498257511  0.8724716408141082
 
  0.00000000E+00  0.00000000E+00  0.00000000E+00
  0.00000000E+00  0.00000000E+00  0.00000000E+00
  0.00000000E+00  0.00000000E+00  0.00000000E+00
  0.00000000E+00  0.00000000E+00  0.00000000E+00
  0.00000000E+00  0.00000000E+00  0.00000000E+00
  0.00000000E+00  0.00000000E+00  0.00000000E+00
  0.00000000E+00  0.00000000E+00  0.00000000E+00
