Be7, -10.42099534 <s> Ag </s>
  1.00000000000000
    18.44160404758235     0.00000000000000     0.00000000000000
     0.00000000000000    18.44160404758235     0.00000000000000
     0.00000000000000     0.00000000000000    18.44160404758235
  Ag    
  7     
Direct
     0.62146994098231      0.67195061972553      0.75377410832839   
     0.67963668060929      0.71196654864760      0.62551085851624   
     0.60467712031139      0.52954659361308      0.49516245578707   
     0.60438170919317      0.58931803227589      0.62764707372001   
     0.60974849855549      0.67432770997184      0.50063381655920   
     0.72171443767804      0.60597414797121      0.53068780148573   
     0.56107650987161      0.62156505920568      0.87901905004113   
