Pb12, -38.51880692 <s> Ni </s>          
   1.00000000000000     
    21.0286003094064888    0.0000000000000000    0.0000000000000000
     0.0000000000000000   21.0286003094064888    0.0000000000000000
     0.0000000000000000    0.0000000000000000   21.0286003094064888
   Ni
    12
Direct
  0.3420309938559538  0.3580055662751397  0.2363233800829689
  0.3006929517319504  0.4530303291519827  0.2771495226689420
  0.4062438872273545  0.3060968953829821  0.3069604318619780
  0.3986675266774504  0.4196846296562024  0.3175746888790310
  0.4800018262661685  0.3602267346608842  0.3669695412294088
  0.3124187860917044  0.3574180121295409  0.3436675247823047
  0.3189379913419220  0.4642567370685852  0.3838278356648261
  0.4101335667396180  0.4201889010630705  0.4323334924320303
  0.3056648441590330  0.3803384206466516  0.4533396772755090
  0.3896976633156693  0.3134812657610016  0.4180324600654824
  0.3840291102526767  0.3515840408939338  0.5226822500396793
  0.4851157719559361  0.3493233869254633  0.4747741146332558
 
  0.00000000E+00  0.00000000E+00  0.00000000E+00
  0.00000000E+00  0.00000000E+00  0.00000000E+00
  0.00000000E+00  0.00000000E+00  0.00000000E+00
  0.00000000E+00  0.00000000E+00  0.00000000E+00
  0.00000000E+00  0.00000000E+00  0.00000000E+00
  0.00000000E+00  0.00000000E+00  0.00000000E+00
  0.00000000E+00  0.00000000E+00  0.00000000E+00
  0.00000000E+00  0.00000000E+00  0.00000000E+00
  0.00000000E+00  0.00000000E+00  0.00000000E+00
  0.00000000E+00  0.00000000E+00  0.00000000E+00
  0.00000000E+00  0.00000000E+00  0.00000000E+00
  0.00000000E+00  0.00000000E+00  0.00000000E+00
