Pb12, -38.51880692 <s> Ni </s>          
   1.00000000000000     
    21.0286003094064888    0.0000000000000000    0.0000000000000000
     0.0000000000000000   21.0286003094064888    0.0000000000000000
     0.0000000000000000    0.0000000000000000   21.0286003094064888
   Ni
    12
Direct
  0.3371688247197510  0.3593086953035183  0.2087405570434645
  0.2834763215659665  0.4626615182698272  0.2575036826546376
  0.4138969171656615  0.2917965053367702  0.2823734404303075
  0.4112533500716107  0.4298730725099650  0.3051932142114387
  0.5082324451354342  0.3512058066298830  0.3694473371651426
  0.2937682606210048  0.3507101445024361  0.3420655624777210
  0.2984315220680325  0.4848336249030887  0.3807698303328579
  0.4144410402777025  0.4367573452686319  0.4429182191291323
  0.2905118206701466  0.3829627827236174  0.4785547790721036
  0.3916247819993759  0.2938634415289565  0.4210743962469414
  0.3887680271210383  0.3495252124861484  0.5500282708456691
  0.5020616081997124  0.3401367701525940  0.4949656300059997
 
  0.00000000E+00  0.00000000E+00  0.00000000E+00
  0.00000000E+00  0.00000000E+00  0.00000000E+00
  0.00000000E+00  0.00000000E+00  0.00000000E+00
  0.00000000E+00  0.00000000E+00  0.00000000E+00
  0.00000000E+00  0.00000000E+00  0.00000000E+00
  0.00000000E+00  0.00000000E+00  0.00000000E+00
  0.00000000E+00  0.00000000E+00  0.00000000E+00
  0.00000000E+00  0.00000000E+00  0.00000000E+00
  0.00000000E+00  0.00000000E+00  0.00000000E+00
  0.00000000E+00  0.00000000E+00  0.00000000E+00
  0.00000000E+00  0.00000000E+00  0.00000000E+00
  0.00000000E+00  0.00000000E+00  0.00000000E+00
