Al49, -156.3822851 <s> Ag </s>
  1.00000000000000
    23.40456042788509     0.00000000000000     0.00000000000000
     0.00000000000000    23.40456042788509     0.00000000000000
     0.00000000000000     0.00000000000000    23.40456042788509
  Ag    
  49    
Direct
     0.66676954617256      0.63522181902533      0.47233386389505   
     0.70876244563485      0.52333255311399      0.49060918854274   
     0.70311695678453      0.46173799361374      0.38651241748227   
     0.62903015717964      0.75290554494546      0.45576689748095   
     0.68739065713215      0.46189854879404      0.58853269330670   
     0.62227153975003      0.54772323320237      0.40548841327626   
     0.67987794468725      0.39925711815032      0.48158667947110   
     0.64153220721975      0.57595972057277      0.57194270472265   
     0.58665669425992      0.66225703004504      0.38734726329564   
     0.60381777659295      0.68827045094495      0.55687435422718   
     0.63086738174838      0.52332194431751      0.68012225706969   
     0.64541641445780      0.34269505331295      0.57510681869841   
     0.62747057860949      0.48547816396029      0.30236644297862   
     0.58917199271585      0.42540977217741      0.39710598373260   
     0.58164383816579      0.63311697116453      0.65843604795160   
     0.58984308244019      0.47747299124217      0.51000680333234   
     0.54862264283065      0.57443163600478      0.31594421395280   
     0.50068397770635      0.50695796364985      0.42096086081087   
     0.54440381801603      0.59271461322941      0.49243905028283   
     0.51695229465138      0.71079111245863      0.47441910724879   
     0.58656415973782      0.41911954806775      0.63540381267985   
     0.54925245035891      0.58311312149904      0.75866137030329   
     0.56307744982762      0.35458581947353      0.48468720411717   
     0.53316785797145      0.53061377048217      0.60188812718009   
     0.47316080064898      0.63176857155757      0.39459548932171   
     0.50786037837352      0.45348499884058      0.30936015617799   
     0.43462826291529      0.55079028221154      0.31866744997538   
     0.52129178615201      0.47861007932959      0.71616688925653   
     0.48291672937595      0.37676762151171      0.39548883329764   
     0.41472387449439      0.44408454283348      0.47367041610439   
     0.49448787381308      0.42596613472578      0.55474292746883   
     0.52910603159415      0.30880584539034      0.58903251559552   
     0.37937023188788      0.45648898116742      0.35793590531667   
     0.45608380562007      0.59221206331150      0.67864024091806   
     0.49147886358700      0.65802329992622      0.58349760930037   
     0.43248483801458      0.55497764967309      0.55291071391605   
     0.41208758170681      0.66120152473929      0.49460878652287   
     0.39070334708001      0.55811028962802      0.43242626870764   
     0.48065026453511      0.37580301489347      0.66942816988821   
     0.44712858610428      0.32254946578964      0.49801837111328   
     0.37047553543138      0.34633160295845      0.40075009691297   
     0.42376505527425      0.47865275163138      0.64609789416643   
     0.30146883191648      0.48350367813758      0.44829225615192   
     0.33863665435625      0.55981893767297      0.64973884648056   
     0.39239107935416      0.37273550512331      0.59317593190855   
     0.32086459597430      0.59000729619936      0.52529306175669   
     0.37885284922171      0.66122517292297      0.60908119506606   
     0.33738263256627      0.47693341643126      0.56465209540903   
     0.31916369510389      0.37679711856401      0.50213203303324   
