Ni10, -992.0 <s> Ni </s>                
   1.00000000000000     
    17.5475899999999996    0.0000000000000000    0.0000000000000000
     0.0000000000000000   17.5475899999999996    0.0000000000000000
     0.0000000000000000    0.0000000000000000   17.5475899999999996
   Ni
    10
Direct
  0.4793357822099293  0.6816991540373638  0.5068389205812590
  0.4364628567456585  0.5648113552683862  0.5930194470364732
  0.4409500864392592  0.5733251034054737  0.4106876775504668
  0.4181276012756045  0.4238587696303996  0.6448540561755706
  0.4029110974001034  0.4143422388690224  0.4960940964631217
  0.4252702809724459  0.4379667165039622  0.3497884372030951
  0.5970548812202580  0.5855018903099174  0.5030765398466223
  0.5589832506915136  0.4264996918916793  0.5888709376840038
  0.5631994029088300  0.4349042063382311  0.4067594715925759
  0.6777047601364042  0.4570908737455637  0.5000104158668257
 
  0.00000000E+00  0.00000000E+00  0.00000000E+00
  0.00000000E+00  0.00000000E+00  0.00000000E+00
  0.00000000E+00  0.00000000E+00  0.00000000E+00
  0.00000000E+00  0.00000000E+00  0.00000000E+00
  0.00000000E+00  0.00000000E+00  0.00000000E+00
  0.00000000E+00  0.00000000E+00  0.00000000E+00
  0.00000000E+00  0.00000000E+00  0.00000000E+00
  0.00000000E+00  0.00000000E+00  0.00000000E+00
  0.00000000E+00  0.00000000E+00  0.00000000E+00
  0.00000000E+00  0.00000000E+00  0.00000000E+00
