Pt11, -46.93263774 <s> Ag </s>          
   1.00000000000000     
    18.6987967317758290    0.0000000000000000    0.0000000000000000
     0.0000000000000000   18.6987967317758290    0.0000000000000000
     0.0000000000000000    0.0000000000000000   18.6987967317758290
   Ag
    11
Direct
  0.6334537620943806  0.3741245416840945  0.4255687635538755
  0.5784622947386615  0.5060643671759031  0.4132502692288711
  0.5429130887429695  0.4217959682858806  0.5280971366743629
  0.5124298812700232  0.4081141191122064  0.6743161678286993
  0.5234674701038915  0.6325141408967178  0.3650384391219421
  0.5434027907469197  0.5416021211866904  0.6131382223009668
  0.5783180902467693  0.6292999997991777  0.5005245685116602
  0.4129332166280711  0.4696274013104376  0.5883303468967914
  0.4521934081290612  0.5542181132145242  0.4751400693408876
  0.3117127017614237  0.5276251106043794  0.5054200189913625
  0.6335152227024314  0.6535297796545985  0.6309712810502164
 
  0.00000000E+00  0.00000000E+00  0.00000000E+00
  0.00000000E+00  0.00000000E+00  0.00000000E+00
  0.00000000E+00  0.00000000E+00  0.00000000E+00
  0.00000000E+00  0.00000000E+00  0.00000000E+00
  0.00000000E+00  0.00000000E+00  0.00000000E+00
  0.00000000E+00  0.00000000E+00  0.00000000E+00
  0.00000000E+00  0.00000000E+00  0.00000000E+00
  0.00000000E+00  0.00000000E+00  0.00000000E+00
  0.00000000E+00  0.00000000E+00  0.00000000E+00
  0.00000000E+00  0.00000000E+00  0.00000000E+00
  0.00000000E+00  0.00000000E+00  0.00000000E+00
