Al32, -99.59591754 <s> Ag </s>          
   1.00000000000000     
    20.7335768332625499    0.0000000000000000    0.0000000000000000
     0.0000000000000000   20.7335768332625499    0.0000000000000000
     0.0000000000000000    0.0000000000000000   20.7335768332625499
   Ag
    32
Direct
  0.3110229327042231  0.4835835501140380  0.6093872404010352
  0.4153489864745782  0.3232157046188769  0.4326420863477149
  0.3343782951490096  0.4282871796802890  0.4134127338987422
  0.3439934585963398  0.3731091617517083  0.5423948569434657
  0.3225820667483734  0.6156469555198222  0.5996985271026580
  0.3327485963137847  0.5365943816869334  0.4864769169043613
  0.3918513723518336  0.5484162555115126  0.6970327290090372
  0.5477371303124441  0.3516898552441750  0.4515151456251883
  0.4468933629487572  0.4443716082632764  0.4951385923956544
  0.4595412189941036  0.4368716093293204  0.3628420557091763
  0.4719538096000982  0.3264968760693273  0.5617384902745798
  0.5234633804916632  0.5340056304054742  0.6706776977409307
  0.3855729461263688  0.6605502691785908  0.4884028432856602
  0.4429218099184331  0.5598091725283442  0.5647183151914117
  0.4351357674899252  0.4344721309699838  0.6354106249955244
  0.4564040171461040  0.6612269073858996  0.6490891965017488
  0.5603051615785786  0.4288219115768241  0.5725048711122352
  0.5857280922089501  0.5619532844297815  0.5481466497068110
  0.5142247824660779  0.6718154549113121  0.5139948732185422
  0.4617459071240291  0.5658162410872940  0.4278701637019265
  0.5727374600670933  0.4823434587392128  0.4403045665520294
  0.5388110106034999  0.5366368650975708  0.3185140595363352
  0.6753537520604417  0.3899009171102867  0.4256142425207478
  0.6477891946373585  0.4915550977031431  0.6529612411747889
  0.5860725177966437  0.4023856061981776  0.3262742089185275
  0.5894654974873311  0.6611286016679567  0.6368897502697166
  0.6886288463615173  0.4716549357497697  0.5267872158116255
  0.6479833793608930  0.6868987446943573  0.5148117008531140
  0.5902966733284166  0.6181762601952052  0.4129435573033844
  0.6693433539835603  0.5127218660348364  0.3528083345025054
  0.7130550635489961  0.5920900066346459  0.5894774270303889
  0.7141619272473616  0.5840467496537678  0.4567977692245854
 
  0.00000000E+00  0.00000000E+00  0.00000000E+00
  0.00000000E+00  0.00000000E+00  0.00000000E+00
  0.00000000E+00  0.00000000E+00  0.00000000E+00
  0.00000000E+00  0.00000000E+00  0.00000000E+00
  0.00000000E+00  0.00000000E+00  0.00000000E+00
  0.00000000E+00  0.00000000E+00  0.00000000E+00
  0.00000000E+00  0.00000000E+00  0.00000000E+00
  0.00000000E+00  0.00000000E+00  0.00000000E+00
  0.00000000E+00  0.00000000E+00  0.00000000E+00
  0.00000000E+00  0.00000000E+00  0.00000000E+00
  0.00000000E+00  0.00000000E+00  0.00000000E+00
  0.00000000E+00  0.00000000E+00  0.00000000E+00
  0.00000000E+00  0.00000000E+00  0.00000000E+00
  0.00000000E+00  0.00000000E+00  0.00000000E+00
  0.00000000E+00  0.00000000E+00  0.00000000E+00
  0.00000000E+00  0.00000000E+00  0.00000000E+00
  0.00000000E+00  0.00000000E+00  0.00000000E+00
  0.00000000E+00  0.00000000E+00  0.00000000E+00
  0.00000000E+00  0.00000000E+00  0.00000000E+00
  0.00000000E+00  0.00000000E+00  0.00000000E+00
  0.00000000E+00  0.00000000E+00  0.00000000E+00
  0.00000000E+00  0.00000000E+00  0.00000000E+00
  0.00000000E+00  0.00000000E+00  0.00000000E+00
  0.00000000E+00  0.00000000E+00  0.00000000E+00
  0.00000000E+00  0.00000000E+00  0.00000000E+00
  0.00000000E+00  0.00000000E+00  0.00000000E+00
  0.00000000E+00  0.00000000E+00  0.00000000E+00
  0.00000000E+00  0.00000000E+00  0.00000000E+00
  0.00000000E+00  0.00000000E+00  0.00000000E+00
  0.00000000E+00  0.00000000E+00  0.00000000E+00
  0.00000000E+00  0.00000000E+00  0.00000000E+00
  0.00000000E+00  0.00000000E+00  0.00000000E+00
