Ti10, -58.42898862 <s> Ni </s>          
   1.00000000000000     
    26.7609957717004292    0.0000000000000000    0.0000000000000000
     0.0000000000000000   26.7609957717004292    0.0000000000000000
     0.0000000000000000    0.0000000000000000   26.7609957717004292
   Ni
    10
Direct
  0.5784684574772408  0.4691103751263986  0.4981602501288254
  0.4957321457854108  0.4477987921144213  0.5149487915034847
  0.5395134052982826  0.4140860973479840  0.4454527356049151
  0.6014974405570708  0.5380140934124186  0.4522175746642434
  0.2086341332508622  0.4712338453940907  0.4821907182197895
  0.6188691405728485  0.4475063944711848  0.4249999678757171
  0.5176888154703597  0.5262874771434034  0.4792399417824451
  0.5462239290137813  0.4901806393982145  0.4068855984393295
  0.4681421021803184  0.4659190650719914  0.4364337400794077
  0.1710629201233046  0.4029650635423795  0.4891496371421764
 
  0.00000000E+00  0.00000000E+00  0.00000000E+00
  0.00000000E+00  0.00000000E+00  0.00000000E+00
  0.00000000E+00  0.00000000E+00  0.00000000E+00
  0.00000000E+00  0.00000000E+00  0.00000000E+00
  0.00000000E+00  0.00000000E+00  0.00000000E+00
  0.00000000E+00  0.00000000E+00  0.00000000E+00
  0.00000000E+00  0.00000000E+00  0.00000000E+00
  0.00000000E+00  0.00000000E+00  0.00000000E+00
  0.00000000E+00  0.00000000E+00  0.00000000E+00
  0.00000000E+00  0.00000000E+00  0.00000000E+00
