Ti10, -58.42898862 <s> Ni </s>          
   1.00000000000000     
    26.7609957717004292    0.0000000000000000    0.0000000000000000
     0.0000000000000000   26.7609957717004292    0.0000000000000000
     0.0000000000000000    0.0000000000000000   26.7609957717004292
   Ni
    10
Direct
  0.5881551739336497  0.4665062580674783  0.5124569387073225
  0.4875334863235868  0.4449546336583067  0.5195918995060888
  0.5416490971411143  0.3935368863120879  0.4416627008923595
  0.6129577752708163  0.5480079524125854  0.4496350108266702
  0.2100873785345137  0.4741405467550189  0.4817272957728035
  0.6328086003660228  0.4448550124478575  0.4194599996564291
  0.5127130330334689  0.5449206675474487  0.4872198536611473
  0.5417700890750521  0.4914670381137616  0.3987673507352505
  0.4479729976567542  0.4645490588486700  0.4301879258321473
  0.1701848583944943  0.4001637888592706  0.4889699798501077
 
  0.00000000E+00  0.00000000E+00  0.00000000E+00
  0.00000000E+00  0.00000000E+00  0.00000000E+00
  0.00000000E+00  0.00000000E+00  0.00000000E+00
  0.00000000E+00  0.00000000E+00  0.00000000E+00
  0.00000000E+00  0.00000000E+00  0.00000000E+00
  0.00000000E+00  0.00000000E+00  0.00000000E+00
  0.00000000E+00  0.00000000E+00  0.00000000E+00
  0.00000000E+00  0.00000000E+00  0.00000000E+00
  0.00000000E+00  0.00000000E+00  0.00000000E+00
  0.00000000E+00  0.00000000E+00  0.00000000E+00
