Al35, -109.63996583 <s> Ag </s>
  1.00000000000000
    21.48462982784836     0.00000000000000     0.00000000000000
     0.00000000000000    21.48462982784836     0.00000000000000
     0.00000000000000     0.00000000000000    21.48462982784836
  Ag    
  35    
Direct
     0.54522225132458      0.35788809195445      0.64350439123202   
     0.65730623108121      0.41315434627235      0.61721862634489   
     0.44548196593037      0.43091333442726      0.69177024869733   
     0.55096526921725      0.49904642588740      0.66513508055720   
     0.67011936397488      0.53983578814542      0.63636340894392   
     0.54020906720244      0.31155593325175      0.52350846259511   
     0.34349870791446      0.59012458085854      0.61971522549149   
     0.45699904409573      0.64317885196074      0.59964844674083   
     0.65450272604642      0.37095945514098      0.49491735086780   
     0.58486071957382      0.63249062771549      0.67151108427094   
     0.43583349372128      0.38466625123771      0.57245496338639   
     0.55072514048192      0.44449399966038      0.53979946353181   
     0.66655545476864      0.50470993850328      0.51338000751513   
     0.33810076470854      0.46038908009123      0.62832447823607   
     0.44677625392153      0.51424331863770      0.58786929357615   
     0.56089845091675      0.57371988606571      0.55659800396258   
     0.67258407086837      0.63529124930958      0.55011837168873   
     0.33541583426339      0.42458477989889      0.50260505105578   
     0.43095372258193      0.34114695799671      0.45423520313189   
     0.56333069459712      0.71017667228976      0.56971068355026   
     0.26793071193573      0.53443862533419      0.53021824610295   
     0.44591161214258      0.47422894160252      0.46503893265784   
     0.38780149615838      0.58936110898163      0.49993845378424   
     0.54709146528112      0.39033926965420      0.41775487168933   
     0.55320929457596      0.53317756377318      0.43761860941057   
     0.65642341169360      0.45800294405092      0.39491064234221   
     0.49886776661336      0.65203324568391      0.47433784207914   
     0.66224400034070      0.59629823416737      0.42335421028425   
     0.61615798615793      0.71690335666791      0.45343425754030   
     0.38594491007139      0.41875528731295      0.36400596044816   
     0.32437084543028      0.52092070908666      0.41193717628157   
     0.49949532265723      0.46764697575785      0.32957669053387   
     0.60309514204185      0.54209859890394      0.31453522238266   
     0.44114086839508      0.57885130623901      0.38122465653109   
     0.55498615680372      0.65121302295309      0.36017930258514   
