Pt8, -32.03205673 <s> Ag </s>           
   1.00000000000000     
    18.0646736900034810    0.0000000000000000    0.0000000000000000
     0.0000000000000000   18.0646736900034810    0.0000000000000000
     0.0000000000000000    0.0000000000000000   18.0646736900034810
   Ag
     8
Direct
  0.6428570843785132  0.5754049196165338  0.5019093715804154
  0.6558516713046264  0.5247689317373528  0.6453300996920717
  0.3845509809602848  0.5751372976989139  0.6272572467443556
  0.5172720710720241  0.5304283409033496  0.5819024671592520
  0.4007435031580507  0.5386581235457403  0.4837105176989092
  0.5368622648773703  0.4960145742246858  0.4258078721601733
  0.6148530640192100  0.4220346701932277  0.5376507617419460
  0.4130121129985119  0.4970929371790901  0.3413082118763837
 
  0.00000000E+00  0.00000000E+00  0.00000000E+00
  0.00000000E+00  0.00000000E+00  0.00000000E+00
  0.00000000E+00  0.00000000E+00  0.00000000E+00
  0.00000000E+00  0.00000000E+00  0.00000000E+00
  0.00000000E+00  0.00000000E+00  0.00000000E+00
  0.00000000E+00  0.00000000E+00  0.00000000E+00
  0.00000000E+00  0.00000000E+00  0.00000000E+00
  0.00000000E+00  0.00000000E+00  0.00000000E+00
