Li8, -9.40306835 <s> Ag </s>
  1.00000000000000
    19.84567323109158     0.00000000000000     0.00000000000000
     0.00000000000000    19.84567323109158     0.00000000000000
     0.00000000000000     0.00000000000000    19.84567323109158
  Ag    
  8     
Direct
     0.39574043764287      0.49423637139353      0.43798919935379   
     0.49917876470906      0.58414986235467      0.45752918744577   
     0.43624613564714      0.55421510425411      0.31440872334810   
     0.45222042130015      0.50641759391984      0.57303815960017   
     0.57452705440713      0.47929518129740      0.53146495419268   
     0.47233826327319      0.38751233223912      0.50938335198804   
     0.52048390586005      0.46711126783142      0.39574282475169   
     0.51457363310114      0.39237090265063      0.64575221526049   
