Ag13, -894.0 <s> Ni </s>                
   1.00000000000000     
    19.6861390000000007    0.0000000000000000    0.0000000000000000
     0.0000000000000000   19.6861390000000007    0.0000000000000000
     0.0000000000000000    0.0000000000000000   19.6861390000000007
   Ni
    13
Direct
  0.5000000000000000  0.6167915053146060  0.6255591960756907
  0.4411442379413329  0.4402037336522877  0.5414256579311562
  0.4411442379413329  0.5597962663477124  0.5414256579311562
  0.4406496111682495  0.5000000000000000  0.4340278461855479
  0.5000000000000000  0.6050501068617340  0.4489341023676187
  0.5588557620586672  0.5597962663477124  0.5414256579311562
  0.5588557620586672  0.4402037336522877  0.5414256579311562
  0.5593503888317507  0.5000000000000000  0.4340278461855479
  0.5000000000000000  0.5000000000000000  0.6287099666960861
  0.5000000000000000  0.3832084946853938  0.6255591960756907
  0.5000000000000000  0.4417835192698550  0.3442725523502679
  0.5000000000000000  0.3949498931382658  0.4489341023676187
  0.5000000000000000  0.5582164807301451  0.3442725523502679
 
  0.00000000E+00  0.00000000E+00  0.00000000E+00
  0.00000000E+00  0.00000000E+00  0.00000000E+00
  0.00000000E+00  0.00000000E+00  0.00000000E+00
  0.00000000E+00  0.00000000E+00  0.00000000E+00
  0.00000000E+00  0.00000000E+00  0.00000000E+00
  0.00000000E+00  0.00000000E+00  0.00000000E+00
  0.00000000E+00  0.00000000E+00  0.00000000E+00
  0.00000000E+00  0.00000000E+00  0.00000000E+00
  0.00000000E+00  0.00000000E+00  0.00000000E+00
  0.00000000E+00  0.00000000E+00  0.00000000E+00
  0.00000000E+00  0.00000000E+00  0.00000000E+00
  0.00000000E+00  0.00000000E+00  0.00000000E+00
  0.00000000E+00  0.00000000E+00  0.00000000E+00
