Ag13, -894.0 <s> Ni </s>                
   1.00000000000000     
    19.6861390000000007    0.0000000000000000    0.0000000000000000
     0.0000000000000000   19.6861390000000007    0.0000000000000000
     0.0000000000000000    0.0000000000000000   19.6861390000000007
   Ni
    13
Direct
  0.5000000000000000  0.6508909723461694  0.6185902144519945
  0.4142084665002992  0.4313866060088221  0.5551645261879982
  0.4142084665002991  0.5686133939911781  0.5551645261879982
  0.4234688106795930  0.5000000000000000  0.4225042590095410
  0.5000000000000000  0.6326095203105189  0.4516266562779642
  0.5857915334997009  0.5686133939911781  0.5551645261879982
  0.5857915334997009  0.4313866060088221  0.5551645261879982
  0.5765311893204068  0.5000000000000000  0.4225042590095410
  0.5000000000000000  0.5000000000000000  0.6611623177324449
  0.5000000000000000  0.3491090276538307  0.6185902144519945
  0.5000000000000000  0.4322298249780147  0.3163686552077510
  0.5000000000000000  0.3673904796894810  0.4516266562779642
  0.5000000000000000  0.5677701750219851  0.3163686552077510
 
  0.00000000E+00  0.00000000E+00  0.00000000E+00
  0.00000000E+00  0.00000000E+00  0.00000000E+00
  0.00000000E+00  0.00000000E+00  0.00000000E+00
  0.00000000E+00  0.00000000E+00  0.00000000E+00
  0.00000000E+00  0.00000000E+00  0.00000000E+00
  0.00000000E+00  0.00000000E+00  0.00000000E+00
  0.00000000E+00  0.00000000E+00  0.00000000E+00
  0.00000000E+00  0.00000000E+00  0.00000000E+00
  0.00000000E+00  0.00000000E+00  0.00000000E+00
  0.00000000E+00  0.00000000E+00  0.00000000E+00
  0.00000000E+00  0.00000000E+00  0.00000000E+00
  0.00000000E+00  0.00000000E+00  0.00000000E+00
  0.00000000E+00  0.00000000E+00  0.00000000E+00
