Al10, -26.44153416 <s> Pd </s>          
   1.00000000000000     
    19.1804500430147797    0.0000000000000000    0.0000000000000000
     0.0000000000000000   19.1804500430147797    0.0000000000000000
     0.0000000000000000    0.0000000000000000   19.1804500430147797
   Pd
    10
Direct
  0.5832355197504718  0.4343760842613052  0.5128637565212412
  0.5069898098386683  0.4129991307152516  0.6276487523692869
  0.5366320979987776  0.5227243614602584  0.3134433858307827
  0.5235052627576042  0.4132102955414847  0.3910042202416453
  0.4461793673490024  0.4410368759991112  0.5057244370031361
  0.4213437040032086  0.5088859436224384  0.3864037583242184
  0.5292363457180198  0.5437049183472231  0.5865824818276421
  0.5381954733910712  0.5492118073978717  0.4457225150890637
  0.4151095672647154  0.5758828979597166  0.5111001271123915
  0.4043183756757197  0.5017635821641288  0.6269132441742074
 
  0.00000000E+00  0.00000000E+00  0.00000000E+00
  0.00000000E+00  0.00000000E+00  0.00000000E+00
  0.00000000E+00  0.00000000E+00  0.00000000E+00
  0.00000000E+00  0.00000000E+00  0.00000000E+00
  0.00000000E+00  0.00000000E+00  0.00000000E+00
  0.00000000E+00  0.00000000E+00  0.00000000E+00
  0.00000000E+00  0.00000000E+00  0.00000000E+00
  0.00000000E+00  0.00000000E+00  0.00000000E+00
  0.00000000E+00  0.00000000E+00  0.00000000E+00
  0.00000000E+00  0.00000000E+00  0.00000000E+00
