Ti13, -78.67923244 <s> Pd </s>          
   1.00000000000000     
    19.0123495557379805    0.0000000000000000    0.0000000000000000
     0.0000000000000000   19.0123495557379805    0.0000000000000000
     0.0000000000000000    0.0000000000000000   19.0123495557379805
   Pd
    13
Direct
  0.5101702491225842  0.5550123398695525  0.5661849408202564
  0.5442643507410803  0.6399299262895005  0.4611716843325809
  0.6340769985511563  0.5419837649885551  0.5082240952629631
  0.3762057201000643  0.5718609045160742  0.5950228305455069
  0.5535090346384620  0.4231405446652464  0.5269315365673688
  0.4178888416725627  0.4461560385167201  0.5582578782499125
  0.3077919526322735  0.5027297179854088  0.4923731327714865
  0.4190273915372895  0.5789469663800270  0.4617503081125093
  0.4553951255623374  0.3277153709256532  0.4977558319634665
  0.5319598344704545  0.5072145625424398  0.4191609146336408
  0.6470143080600583  0.4274105640760368  0.4235611880287737
  0.4087716631214124  0.4398813810574711  0.4213876534767835
  0.5260729114452394  0.3695898981162097  0.3893996131089313
 
  0.00000000E+00  0.00000000E+00  0.00000000E+00
  0.00000000E+00  0.00000000E+00  0.00000000E+00
  0.00000000E+00  0.00000000E+00  0.00000000E+00
  0.00000000E+00  0.00000000E+00  0.00000000E+00
  0.00000000E+00  0.00000000E+00  0.00000000E+00
  0.00000000E+00  0.00000000E+00  0.00000000E+00
  0.00000000E+00  0.00000000E+00  0.00000000E+00
  0.00000000E+00  0.00000000E+00  0.00000000E+00
  0.00000000E+00  0.00000000E+00  0.00000000E+00
  0.00000000E+00  0.00000000E+00  0.00000000E+00
  0.00000000E+00  0.00000000E+00  0.00000000E+00
  0.00000000E+00  0.00000000E+00  0.00000000E+00
  0.00000000E+00  0.00000000E+00  0.00000000E+00
