Ag13, -894.0 <s> Cu </s>                
   1.00000000000000     
    19.6861390000000007    0.0000000000000000    0.0000000000000000
     0.0000000000000000   19.6861390000000007    0.0000000000000000
     0.0000000000000000    0.0000000000000000   19.6861390000000007
   Cu
    13
Direct
  0.5000000000000000  0.6230753128193202  0.6249500540473345
  0.4373021329815015  0.4388905153638050  0.5418306443950209
  0.4373021329815015  0.5611094846361950  0.5418306443950209
  0.4396031509598360  0.5000000000000000  0.4337987365300925
  0.5000000000000000  0.6132749902337863  0.4503500818263831
  0.5626978670184984  0.5611094846361950  0.5418306443950209
  0.5626978670184984  0.4388905153638050  0.5418306443950209
  0.5603968490401642  0.5000000000000000  0.4337987365300925
  0.5000000000000000  0.5000000000000000  0.6318579034112525
  0.5000000000000000  0.3769246871806798  0.6249500540473345
  0.5000000000000000  0.4397803700475066  0.3413108838532989
  0.5000000000000000  0.3867250097662135  0.4503500818263831
  0.5000000000000000  0.5602196299524934  0.3413108838532989
 
  0.00000000E+00  0.00000000E+00  0.00000000E+00
  0.00000000E+00  0.00000000E+00  0.00000000E+00
  0.00000000E+00  0.00000000E+00  0.00000000E+00
  0.00000000E+00  0.00000000E+00  0.00000000E+00
  0.00000000E+00  0.00000000E+00  0.00000000E+00
  0.00000000E+00  0.00000000E+00  0.00000000E+00
  0.00000000E+00  0.00000000E+00  0.00000000E+00
  0.00000000E+00  0.00000000E+00  0.00000000E+00
  0.00000000E+00  0.00000000E+00  0.00000000E+00
  0.00000000E+00  0.00000000E+00  0.00000000E+00
  0.00000000E+00  0.00000000E+00  0.00000000E+00
  0.00000000E+00  0.00000000E+00  0.00000000E+00
  0.00000000E+00  0.00000000E+00  0.00000000E+00
