Ti11, -65.3461317 <s> Ag </s>           
   1.00000000000000     
    19.5684983933765686    0.0000000000000000    0.0000000000000000
     0.0000000000000000   19.5684983933765686    0.0000000000000000
     0.0000000000000000    0.0000000000000000   19.5684983933765686
   Ag
    11
Direct
  0.6213140643137978  0.3880296598209398  0.5502257970369935
  0.5938308283483060  0.5309029802707129  0.5642881332227060
  0.5391969672626096  0.4518939463193665  0.4525977429013618
  0.4956220382124619  0.4329723819988346  0.5986430272989173
  0.5040679816883639  0.3220086950540293  0.5059820266814460
  0.4038443850036728  0.4263035212901634  0.4912402473564887
  0.5567139802382611  0.5916896009952923  0.4407642659090028
  0.5371716458618728  0.6655055695597220  0.5606554340088281
  0.4494706245016000  0.5545907218626285  0.5442363849684858
  0.4319523275279851  0.5376579942476306  0.4029525779034235
  0.4374931512394031  0.6715203208894535  0.4600913260529824
 
  0.00000000E+00  0.00000000E+00  0.00000000E+00
  0.00000000E+00  0.00000000E+00  0.00000000E+00
  0.00000000E+00  0.00000000E+00  0.00000000E+00
  0.00000000E+00  0.00000000E+00  0.00000000E+00
  0.00000000E+00  0.00000000E+00  0.00000000E+00
  0.00000000E+00  0.00000000E+00  0.00000000E+00
  0.00000000E+00  0.00000000E+00  0.00000000E+00
  0.00000000E+00  0.00000000E+00  0.00000000E+00
  0.00000000E+00  0.00000000E+00  0.00000000E+00
  0.00000000E+00  0.00000000E+00  0.00000000E+00
  0.00000000E+00  0.00000000E+00  0.00000000E+00
