Al48, -152.51938482 <s> Ag </s>
  1.00000000000000
    24.28340265568357     0.00000000000000     0.00000000000000
     0.00000000000000    24.28340265568357     0.00000000000000
     0.00000000000000     0.00000000000000    24.28340265568357
  Ag    
  48    
Direct
     0.52226097569798      0.22115195489660      0.50410242946439   
     0.55060342056227      0.41212562596004      0.49848533612482   
     0.27095172547087      0.52100116693361      0.54216464889746   
     0.53371020309430      0.58096846572559      0.69724126461307   
     0.35811760785929      0.49377594278304      0.46592749286685   
     0.56055530310664      0.69808008428487      0.45706070641669   
     0.55237275153045      0.47131310003495      0.33034024933921   
     0.47069460693076      0.68676008615814      0.52709667282802   
     0.55087371779112      0.30765738275810      0.57345324412915   
     0.50955639419959      0.37825100143564      0.38715897186027   
     0.46975373211947      0.31679095030440      0.49199859775893   
     0.71266546828598      0.53998419957823      0.65982616369027   
     0.38856239151452      0.66429187440300      0.60381980830290   
     0.49948084337356      0.59432151782500      0.45881069551807   
     0.46106339996875      0.68585608776760      0.40421704073969   
     0.57785349766906      0.40137167300321      0.62290124456690   
     0.62721374466423      0.60653213970931      0.62330618019397   
     0.39838867454863      0.58581232520785      0.39576169933888   
     0.64696425776892      0.36064181531169      0.53310907340916   
     0.46471258216100      0.39348337837139      0.57937547206498   
     0.38289308200109      0.47653447245080      0.58662230987831   
     0.60864667057747      0.49453961378475      0.67862045183634   
     0.59652746290202      0.61659530312595      0.38932903254567   
     0.69048270199601      0.56199919691762      0.43438512287158   
     0.38947916352227      0.57760854061494      0.53320542735283   
     0.42717698729603      0.56914149610610      0.66081558316700   
     0.42369061335942      0.40886835223533      0.46419431859965   
     0.32091191793406      0.56385687217679      0.63408010674164   
     0.58134201467663      0.30477360336928      0.45603079175047   
     0.49717633415481      0.58136189644326      0.33726798948048   
     0.28914073461914      0.63894731283894      0.55236062003935   
     0.46412283140550      0.49164917482959      0.40099616856310   
     0.47689904793765      0.50036068713817      0.51741808121228   
     0.49217648313084      0.25665656078675      0.39417714063739   
     0.59459001886777      0.50513727817165      0.55907010655604   
     0.57796318642471      0.69459743716808      0.57274904608993   
     0.37236782802602      0.67500541726756      0.47430780022086   
     0.70618883504363      0.54681251193307      0.54570401301435   
     0.68461335908275      0.44350930384369      0.60094717908232   
     0.66134141029084      0.48660246956107      0.36110648636345   
     0.61214426335798      0.60757474337866      0.50529133961466   
     0.62240426124541      0.39198618403131      0.40440165972330   
     0.67205505491539      0.45828318442761      0.48172512039916   
     0.51577437669425      0.58977221874659      0.57694369308986   
     0.49210401306548      0.67747377477504      0.64796832643933   
     0.50047152407567      0.48761773956907      0.63286249897559   
     0.57680786539288      0.50927917239679      0.43839559043106   
     0.30075335076296      0.58912311685249      0.45072330013237   
