Pt23, -107.35222686 <s> Ag </s>         
   1.00000000000000     
    21.3698434304796905    0.0000000000000000    0.0000000000000000
     0.0000000000000000   21.3698434304796905    0.0000000000000000
     0.0000000000000000    0.0000000000000000   21.3698434304796905
   Ag
    23
Direct
  0.3874779356401892  0.4777719377868329  0.4716905947118111
  0.5990721022319538  0.3390478855383878  0.4347234310332981
  0.5263945143216699  0.3123798369286291  0.5421165376988736
  0.4913361378596213  0.4055161087453001  0.4541681085612978
  0.4974343721097092  0.5360481337963002  0.4256661589404869
  0.4973684016156416  0.6680799883127777  0.4075833113966592
  0.6089983063349326  0.4683849965875627  0.4066387257952886
  0.5965073798866879  0.6369311067253760  0.6108335266762683
  0.6040692436808254  0.4232022938242287  0.5320622880023504
  0.4864670965231577  0.4832742441294520  0.5596810928416636
  0.5853487093409667  0.5875988267565807  0.7304968121147046
  0.6092941706903581  0.5526436439295594  0.5075893191956298
  0.5382336395769195  0.3920277290458162  0.6427423025520711
  0.2829662798359207  0.5492398588616194  0.4926562858426031
  0.3809762955980981  0.5619941659135852  0.5758263395455592
  0.6072247084647118  0.5983856491731895  0.3832758966897225
  0.5972982354502929  0.5070152576623215  0.6318244833576606
  0.6046869260953490  0.7315963189324033  0.3712372519328602
  0.4818581649402897  0.5733278832789571  0.6554965897711600
  0.5220468276595380  0.2694064247366043  0.6636349360077025
  0.3894253569330913  0.6101404171932194  0.4496650355560736
  0.6038680924043842  0.6813326679572711  0.4886602035565926
  0.4904985682297257  0.6233620147787163  0.5329458827200166
 
  0.00000000E+00  0.00000000E+00  0.00000000E+00
  0.00000000E+00  0.00000000E+00  0.00000000E+00
  0.00000000E+00  0.00000000E+00  0.00000000E+00
  0.00000000E+00  0.00000000E+00  0.00000000E+00
  0.00000000E+00  0.00000000E+00  0.00000000E+00
  0.00000000E+00  0.00000000E+00  0.00000000E+00
  0.00000000E+00  0.00000000E+00  0.00000000E+00
  0.00000000E+00  0.00000000E+00  0.00000000E+00
  0.00000000E+00  0.00000000E+00  0.00000000E+00
  0.00000000E+00  0.00000000E+00  0.00000000E+00
  0.00000000E+00  0.00000000E+00  0.00000000E+00
  0.00000000E+00  0.00000000E+00  0.00000000E+00
  0.00000000E+00  0.00000000E+00  0.00000000E+00
  0.00000000E+00  0.00000000E+00  0.00000000E+00
  0.00000000E+00  0.00000000E+00  0.00000000E+00
  0.00000000E+00  0.00000000E+00  0.00000000E+00
  0.00000000E+00  0.00000000E+00  0.00000000E+00
  0.00000000E+00  0.00000000E+00  0.00000000E+00
  0.00000000E+00  0.00000000E+00  0.00000000E+00
  0.00000000E+00  0.00000000E+00  0.00000000E+00
  0.00000000E+00  0.00000000E+00  0.00000000E+00
  0.00000000E+00  0.00000000E+00  0.00000000E+00
  0.00000000E+00  0.00000000E+00  0.00000000E+00
