Mo13, -835.0 <s> Cu </s>
  1.00000000000000
    19.12699500000000     0.00000000000000     0.00000000000000
     0.00000000000000    19.12699500000000     0.00000000000000
     0.00000000000000     0.00000000000000    19.12699500000000
  Cu    
  13    
Direct
     0.51331296665680      0.60225118739595      0.40422854710752   
     0.43421715674324      0.50553510325842      0.63002647898820   
     0.60079997297430      0.52762663964909      0.44559385209384   
     0.49541367596360      0.40999215098678      0.61773375041552   
     0.45091326538425      0.41340842648259      0.40381073205791   
     0.42562794233641      0.46996444323620      0.50965008212170   
     0.53001602501516      0.49009214611621      0.35508366978603   
     0.59940263931126      0.45103018301576      0.59480100457509   
     0.54088259328030      0.43193950521320      0.48507186834371   
     0.41879436356968      0.52678782834123      0.37880912387977   
     0.54318999732490      0.53074941194091      0.65494904636687   
     0.42184631726284      0.58667041050679      0.48376253180604   
     0.52558308417725      0.55395256051639      0.53647931913872   
