Al10, -26.43943848 <s> Ni </s>          
   1.00000000000000     
    19.1130358712615696    0.0000000000000000    0.0000000000000000
     0.0000000000000000   19.1130358712615696    0.0000000000000000
     0.0000000000000000    0.0000000000000000   19.1130358712615696
   Ni
    10
Direct
  0.2987585645894212  0.4223989574440061  0.3994652949144499
  0.4254443006822980  0.3609121210928318  0.4371600059034277
  0.3642516139339064  0.4610826467778861  0.4908511203652499
  0.5648924618917127  0.3506848606236002  0.4800877042363294
  0.4880891730175709  0.4275382657702388  0.5283375323167621
  0.5932915280905977  0.4704546175820729  0.4922186520791575
  0.4661611229329730  0.5317064388429578  0.4546754773947732
  0.4040401953810886  0.4648550170300965  0.3634183423508803
  0.5278389642634964  0.4314830006040483  0.4009047791239732
  0.3270047965396142  0.5420502760944557  0.4116861220675192
 
  0.00000000E+00  0.00000000E+00  0.00000000E+00
  0.00000000E+00  0.00000000E+00  0.00000000E+00
  0.00000000E+00  0.00000000E+00  0.00000000E+00
  0.00000000E+00  0.00000000E+00  0.00000000E+00
  0.00000000E+00  0.00000000E+00  0.00000000E+00
  0.00000000E+00  0.00000000E+00  0.00000000E+00
  0.00000000E+00  0.00000000E+00  0.00000000E+00
  0.00000000E+00  0.00000000E+00  0.00000000E+00
  0.00000000E+00  0.00000000E+00  0.00000000E+00
  0.00000000E+00  0.00000000E+00  0.00000000E+00
