Pt38, -188.11297672 <s> Ag </s>         
   1.00000000000000     
    22.1842140563756587    0.0000000000000000    0.0000000000000000
     0.0000000000000000   22.1842140563756587    0.0000000000000000
     0.0000000000000000    0.0000000000000000   22.1842140563756587
   Ag
    38
Direct
  0.6132274406570939  0.7077656621119918  0.5127232156615447
  0.4557241249950145  0.6695260111593224  0.3605096395775186
  0.5799675498616019  0.6572820663253869  0.3957734447293828
  0.6770223363797924  0.6093473838344377  0.4690689091319239
  0.4939173342270545  0.6995685891011316  0.4782747798475647
  0.5845090311933029  0.6279071186289614  0.6131584544308596
  0.4901133738550915  0.5525735471199827  0.3813049196175428
  0.3984892131981789  0.6193880247068964  0.4630622645501365
  0.3694282531662400  0.5733253017927854  0.3474296733949380
  0.7030250797598362  0.6582192097810009  0.5856799369857398
  0.6143494418398441  0.5325351352945681  0.3848065268368983
  0.4601005339568122  0.6236919791529560  0.5738861827527817
  0.5538352914269123  0.5809714445457489  0.4929677616697896
  0.6972548812715267  0.4857561508529590  0.4651982791982290
  0.4894695092312267  0.6572998247874658  0.6931069361604330
  0.6633934296200967  0.5374215558071574  0.5769225091519570
  0.3237278782231999  0.5186294108980971  0.4529594199177435
  0.5218455147104986  0.7344449177850537  0.5976365927158983
  0.5305830934063230  0.4383615135978112  0.3473790046288140
  0.4062083085800570  0.4560455238177651  0.3784183855833997
  0.5642301302770993  0.4490797251890766  0.4681034070670059
  0.6749175450927305  0.2926331158199982  0.5510614517594378
  0.3496747640633284  0.5648450899355661  0.5708838812133257
  0.4715776734383006  0.3644496536842590  0.4313824716359400
  0.6531330398347792  0.4135249359753791  0.5570085779793363
  0.4464440907947436  0.5048254947243461  0.5013843912906455
  0.5417048389646767  0.5010138157996403  0.5872676698501703
  0.5525183416508572  0.5475890780813790  0.7075271279682651
  0.3666261968521017  0.4033510649836471  0.4912537629817055
  0.2744409230269095  0.4654335636081481  0.5562726849339357
  0.5665166001821810  0.3208230121352625  0.4992884375762416
  0.6660101384439538  0.3673410330715169  0.4408569172350535
  0.4322132770495580  0.5458069679718143  0.6686607742182142
  0.4791642245593610  0.3897758173849314  0.5553173924867006
  0.6233287488095548  0.4520350890568679  0.6709635766744787
  0.3841958157574729  0.4469921240563180  0.6114905381115965
  0.5755331375540433  0.3423043230550581  0.6249029786138980
  0.4938116773318154  0.4303485076084433  0.6783399051041077
 
  0.00000000E+00  0.00000000E+00  0.00000000E+00
  0.00000000E+00  0.00000000E+00  0.00000000E+00
  0.00000000E+00  0.00000000E+00  0.00000000E+00
  0.00000000E+00  0.00000000E+00  0.00000000E+00
  0.00000000E+00  0.00000000E+00  0.00000000E+00
  0.00000000E+00  0.00000000E+00  0.00000000E+00
  0.00000000E+00  0.00000000E+00  0.00000000E+00
  0.00000000E+00  0.00000000E+00  0.00000000E+00
  0.00000000E+00  0.00000000E+00  0.00000000E+00
  0.00000000E+00  0.00000000E+00  0.00000000E+00
  0.00000000E+00  0.00000000E+00  0.00000000E+00
  0.00000000E+00  0.00000000E+00  0.00000000E+00
  0.00000000E+00  0.00000000E+00  0.00000000E+00
  0.00000000E+00  0.00000000E+00  0.00000000E+00
  0.00000000E+00  0.00000000E+00  0.00000000E+00
  0.00000000E+00  0.00000000E+00  0.00000000E+00
  0.00000000E+00  0.00000000E+00  0.00000000E+00
  0.00000000E+00  0.00000000E+00  0.00000000E+00
  0.00000000E+00  0.00000000E+00  0.00000000E+00
  0.00000000E+00  0.00000000E+00  0.00000000E+00
  0.00000000E+00  0.00000000E+00  0.00000000E+00
  0.00000000E+00  0.00000000E+00  0.00000000E+00
  0.00000000E+00  0.00000000E+00  0.00000000E+00
  0.00000000E+00  0.00000000E+00  0.00000000E+00
  0.00000000E+00  0.00000000E+00  0.00000000E+00
  0.00000000E+00  0.00000000E+00  0.00000000E+00
  0.00000000E+00  0.00000000E+00  0.00000000E+00
  0.00000000E+00  0.00000000E+00  0.00000000E+00
  0.00000000E+00  0.00000000E+00  0.00000000E+00
  0.00000000E+00  0.00000000E+00  0.00000000E+00
  0.00000000E+00  0.00000000E+00  0.00000000E+00
  0.00000000E+00  0.00000000E+00  0.00000000E+00
  0.00000000E+00  0.00000000E+00  0.00000000E+00
  0.00000000E+00  0.00000000E+00  0.00000000E+00
  0.00000000E+00  0.00000000E+00  0.00000000E+00
  0.00000000E+00  0.00000000E+00  0.00000000E+00
  0.00000000E+00  0.00000000E+00  0.00000000E+00
  0.00000000E+00  0.00000000E+00  0.00000000E+00
