Pt13, -57.78773142 <s> Ni </s>          
   1.00000000000000     
    18.7991743906074191    0.0000000000000000    0.0000000000000000
     0.0000000000000000   18.7991743906074191    0.0000000000000000
     0.0000000000000000    0.0000000000000000   18.7991743906074191
   Ni
    13
Direct
  0.5425279601522669  0.4390931423236997  0.5913215353981460
  0.5557736857471898  0.4956764518396187  0.4337752261776886
  0.5588262974869120  0.3435521813905131  0.4716519174474569
  0.4726604479006014  0.5167913507432771  0.2920784406615656
  0.4564183649340807  0.5505226386321682  0.5449690068149908
  0.5356605221202738  0.3761288083228386  0.3261906900166183
  0.4510430120187597  0.2726115499960327  0.4015692087650593
  0.4251876058294080  0.5929965508718131  0.4120194419254343
  0.4183512775150518  0.3711503712940324  0.5329938761388939
  0.3905313194885412  0.4644247247416164  0.6416809788924129
  0.4112595209265670  0.4282405261237841  0.3975431932589753
  0.3187573860574476  0.5065611043275134  0.4955973775040046
  0.3196459421018429  0.5315990556768410  0.3309703832102899
 
  0.00000000E+00  0.00000000E+00  0.00000000E+00
  0.00000000E+00  0.00000000E+00  0.00000000E+00
  0.00000000E+00  0.00000000E+00  0.00000000E+00
  0.00000000E+00  0.00000000E+00  0.00000000E+00
  0.00000000E+00  0.00000000E+00  0.00000000E+00
  0.00000000E+00  0.00000000E+00  0.00000000E+00
  0.00000000E+00  0.00000000E+00  0.00000000E+00
  0.00000000E+00  0.00000000E+00  0.00000000E+00
  0.00000000E+00  0.00000000E+00  0.00000000E+00
  0.00000000E+00  0.00000000E+00  0.00000000E+00
  0.00000000E+00  0.00000000E+00  0.00000000E+00
  0.00000000E+00  0.00000000E+00  0.00000000E+00
  0.00000000E+00  0.00000000E+00  0.00000000E+00
