Pt10, -41.6542407 <s> Pd </s>           
   1.00000000000000     
    19.1529689057190389    0.0000000000000000    0.0000000000000000
     0.0000000000000000   19.1529689057190389    0.0000000000000000
     0.0000000000000000    0.0000000000000000   19.1529689057190389
   Pd
    10
Direct
  0.5374724192526215  0.5261063137826014  0.4608108011022969
  0.5892782602413439  0.5949383084549854  0.5574840825839176
  0.4757067275508347  0.6553937276861370  0.5780466379671965
  0.4200578471495816  0.5734364445894978  0.4938377812412908
  0.4761274917214307  0.4507912517537842  0.3695275096409005
  0.6294021771222256  0.4860991306275607  0.6169857862437613
  0.3562479406846346  0.4892419846170790  0.4129812481534655
  0.4311814210537004  0.4391060274365549  0.5116156624688547
  0.5644575491377231  0.4172304255056730  0.5287082636119025
  0.4939355285185534  0.3417909965762930  0.4442055239321521
 
  0.00000000E+00  0.00000000E+00  0.00000000E+00
  0.00000000E+00  0.00000000E+00  0.00000000E+00
  0.00000000E+00  0.00000000E+00  0.00000000E+00
  0.00000000E+00  0.00000000E+00  0.00000000E+00
  0.00000000E+00  0.00000000E+00  0.00000000E+00
  0.00000000E+00  0.00000000E+00  0.00000000E+00
  0.00000000E+00  0.00000000E+00  0.00000000E+00
  0.00000000E+00  0.00000000E+00  0.00000000E+00
  0.00000000E+00  0.00000000E+00  0.00000000E+00
  0.00000000E+00  0.00000000E+00  0.00000000E+00
