Pb11, -34.84133003 <s> Cu </s>          
   1.00000000000000     
    20.0855141861534285    0.0000000000000000    0.0000000000000000
     0.0000000000000000   20.0855141861534285    0.0000000000000000
     0.0000000000000000    0.0000000000000000   20.0855141861534285
   Cu
    11
Direct
  0.3741984674731613  0.3892381291423490  0.2437858925216640
  0.2642008652007272  0.4196160053570201  0.2721422050971695
  0.3605347230059739  0.4516459457029081  0.3474646925446281
  0.4456251441645071  0.3605395553908675  0.3353349378695592
  0.3245356388486581  0.3352152926580027  0.3426880856444136
  0.5180735630467473  0.3347990885819659  0.4290971603370373
  0.4049233323873650  0.2891903724651146  0.4225164629901844
  0.2501184380698445  0.4197777201500947  0.3893287780812738
  0.4517450004892767  0.4373731701576171  0.4274595236410335
  0.3456016890001573  0.3888207140096482  0.4537453971936750
  0.4424052066287468  0.3557460746995844  0.5183989323945125
 
  0.00000000E+00  0.00000000E+00  0.00000000E+00
  0.00000000E+00  0.00000000E+00  0.00000000E+00
  0.00000000E+00  0.00000000E+00  0.00000000E+00
  0.00000000E+00  0.00000000E+00  0.00000000E+00
  0.00000000E+00  0.00000000E+00  0.00000000E+00
  0.00000000E+00  0.00000000E+00  0.00000000E+00
  0.00000000E+00  0.00000000E+00  0.00000000E+00
  0.00000000E+00  0.00000000E+00  0.00000000E+00
  0.00000000E+00  0.00000000E+00  0.00000000E+00
  0.00000000E+00  0.00000000E+00  0.00000000E+00
  0.00000000E+00  0.00000000E+00  0.00000000E+00
