Pb11, -34.84133003 <s> Cu </s>
  1.00000000000000
    20.08551418615343     0.00000000000000     0.00000000000000
     0.00000000000000    20.08551418615343     0.00000000000000
     0.00000000000000     0.00000000000000    20.08551418615343
  Cu    
  11    
Direct
     0.37849313244404      0.38642857026826      0.25367572208128   
     0.27843293360089      0.41734315230447      0.28422039487555   
     0.36304072270529      0.46474156184081      0.34628871246654   
     0.43081743072094      0.36514894261865      0.34593692418868   
     0.31758421829537      0.32421779997042      0.33942208814659   
     0.50612048744221      0.33794376217330      0.42232611628135   
     0.40506397262908      0.28218628159168      0.42433840918108   
     0.25982567884485      0.41793697683095      0.39177415374063   
     0.45583932884292      0.44180713222817      0.43043518952331   
     0.35284033254749      0.38606110143859      0.43674581765548   
     0.43390383024208      0.35814678704987      0.50679854017467   
