Cu13 https://doi.org/10.1039/C7CP02240A <s> Cu </s>
  1.00000000000000
    17.70079800000000     0.00000000000000     0.00000000000000
     0.00000000000000    17.70079800000000     0.00000000000000
     0.00000000000000     0.00000000000000    17.70079800000000
  Cu    
  13    
Cartesian
    -0.80403300000000     -2.43374500000000     -1.40082100000000   
    -2.73319100000000      0.13338300000000      1.02349200000000   
     0.23884000000000     -0.78122400000000     -2.89353500000000   
     0.86665500000000      1.87018300000000      2.41426400000000   
     1.04990000000000     -0.43234400000000      1.80627900000000   
    -1.04533100000000      0.25680600000000      2.80726300000000   
     2.39736100000000      0.25263000000000     -2.06589200000000   
     0.29107300000000      1.30421100000000     -1.66293700000000   
     1.91039000000000      1.24214800000000      0.20405800000000   
     0.88615100000000     -0.88142300000000     -0.58393200000000   
    -0.53691300000000      1.10827800000000      0.62111800000000   
    -0.96304800000000     -1.44719600000000      0.90420400000000   
    -1.55785400000000     -0.19171000000000     -1.17356100000000   
