Au43, -114.28683309 <s> Ag </s>         
   1.00000000000000     
    23.5758732320477193    0.0000000000000000    0.0000000000000000
     0.0000000000000000   23.5758732320477193    0.0000000000000000
     0.0000000000000000    0.0000000000000000   23.5758732320477193
   Ag
    43
Direct
  0.6397079422957976  0.5923016907676402  0.6773726640412504
  0.6179905515590598  0.4899347231487728  0.6150707629435498
  0.5605681388218733  0.6768683798902448  0.6370379257187673
  0.6122965185220952  0.5990960909952441  0.5631955867510612
  0.5300862594747451  0.5631742299856989  0.6523962638009626
  0.6530518795197600  0.5115275019725859  0.4938896197147430
  0.6737120427783559  0.4070871393459184  0.5488795868280462
  0.6343516186772566  0.4055943279922701  0.4302951223564587
  0.4917765142347447  0.4539537945317306  0.6210688404333712
  0.5807911300947984  0.3748446170465087  0.6213149690136041
  0.7163544863067586  0.3313043272527186  0.4706258847449865
  0.4164807469549718  0.5383517971784297  0.6513257517541813
  0.4481571110177827  0.6451973721788629  0.6147361507445572
  0.6046213911434958  0.3183954121912948  0.5099565821454357
  0.5212842960403961  0.6671132335298638  0.5226537935841609
  0.4696536317589401  0.3489023902038552  0.6654806098045066
  0.5592302928123560  0.4418592131834888  0.5212266980336564
  0.5839486129499710  0.5961682862815734  0.4498985905823871
  0.3062212162742783  0.5190868297434520  0.6809412803930804
  0.6288377400726266  0.5108381913202221  0.3744438473231790
  0.4910973803900071  0.5489852587303772  0.5362664820080688
  0.5166333453306962  0.4959808509331007  0.4203202947180283
  0.4935838708109159  0.3375869167088211  0.5481143974304542
  0.4688321324253935  0.6106330181690502  0.4259294295535233
  0.4408286246876666  0.4479266610078527  0.5010297176082699
  0.3850474406809235  0.3701420425320279  0.5777570539552179
  0.5588536207671798  0.4195740598433393  0.3355828504525958
  0.3996709890633620  0.6588780897528036  0.5093754329407456
  0.5481092503361324  0.5907294666993705  0.3373723352941917
  0.5227435338032709  0.3621820606035323  0.4344772702014464
  0.3844534043923444  0.4293900429417136  0.6815458937245868
  0.5924594863019552  0.5087252602605592  0.2602620694888704
  0.4364213765518812  0.4139891015712975  0.3744565234353530
  0.3353841325230057  0.5996014178328188  0.5932728430939251
  0.3567138162154530  0.6316014517867754  0.3983723680745275
  0.4069873837155634  0.3398982330600553  0.4642001460252752
  0.3349168320462171  0.4766166421012283  0.5742153399446264
  0.3365423275025713  0.4388125083250330  0.4558230441820532
  0.3645314188540107  0.5500200924474541  0.4883448926190347
  0.4340160394089798  0.6118553497259678  0.3086788868377994
  0.4794182077415627  0.4994833600154286  0.2963813251618006
  0.5158328588562572  0.5927016240513255  0.2253099665792982
  0.3963247072964016  0.5217960252528969  0.3800597671902359
 
  0.00000000E+00  0.00000000E+00  0.00000000E+00
  0.00000000E+00  0.00000000E+00  0.00000000E+00
  0.00000000E+00  0.00000000E+00  0.00000000E+00
  0.00000000E+00  0.00000000E+00  0.00000000E+00
  0.00000000E+00  0.00000000E+00  0.00000000E+00
  0.00000000E+00  0.00000000E+00  0.00000000E+00
  0.00000000E+00  0.00000000E+00  0.00000000E+00
  0.00000000E+00  0.00000000E+00  0.00000000E+00
  0.00000000E+00  0.00000000E+00  0.00000000E+00
  0.00000000E+00  0.00000000E+00  0.00000000E+00
  0.00000000E+00  0.00000000E+00  0.00000000E+00
  0.00000000E+00  0.00000000E+00  0.00000000E+00
  0.00000000E+00  0.00000000E+00  0.00000000E+00
  0.00000000E+00  0.00000000E+00  0.00000000E+00
  0.00000000E+00  0.00000000E+00  0.00000000E+00
  0.00000000E+00  0.00000000E+00  0.00000000E+00
  0.00000000E+00  0.00000000E+00  0.00000000E+00
  0.00000000E+00  0.00000000E+00  0.00000000E+00
  0.00000000E+00  0.00000000E+00  0.00000000E+00
  0.00000000E+00  0.00000000E+00  0.00000000E+00
  0.00000000E+00  0.00000000E+00  0.00000000E+00
  0.00000000E+00  0.00000000E+00  0.00000000E+00
  0.00000000E+00  0.00000000E+00  0.00000000E+00
  0.00000000E+00  0.00000000E+00  0.00000000E+00
  0.00000000E+00  0.00000000E+00  0.00000000E+00
  0.00000000E+00  0.00000000E+00  0.00000000E+00
  0.00000000E+00  0.00000000E+00  0.00000000E+00
  0.00000000E+00  0.00000000E+00  0.00000000E+00
  0.00000000E+00  0.00000000E+00  0.00000000E+00
  0.00000000E+00  0.00000000E+00  0.00000000E+00
  0.00000000E+00  0.00000000E+00  0.00000000E+00
  0.00000000E+00  0.00000000E+00  0.00000000E+00
  0.00000000E+00  0.00000000E+00  0.00000000E+00
  0.00000000E+00  0.00000000E+00  0.00000000E+00
  0.00000000E+00  0.00000000E+00  0.00000000E+00
  0.00000000E+00  0.00000000E+00  0.00000000E+00
  0.00000000E+00  0.00000000E+00  0.00000000E+00
  0.00000000E+00  0.00000000E+00  0.00000000E+00
  0.00000000E+00  0.00000000E+00  0.00000000E+00
  0.00000000E+00  0.00000000E+00  0.00000000E+00
  0.00000000E+00  0.00000000E+00  0.00000000E+00
  0.00000000E+00  0.00000000E+00  0.00000000E+00
  0.00000000E+00  0.00000000E+00  0.00000000E+00
