Pt11, -767.0 <s> Cu </s>                
   1.00000000000000     
    18.3688420000000008    0.0000000000000000    0.0000000000000000
     0.0000000000000000   18.3688420000000008    0.0000000000000000
     0.0000000000000000    0.0000000000000000   18.3688420000000008
   Cu
    11
Direct
  0.4421035783371565  0.4497919866134064  0.4578529906834160
  0.4989011201656399  0.4569356844274474  0.5764699350553121
  0.5777114880208221  0.4412108824039011  0.4651685987330585
  0.5026972317471022  0.3444219079059236  0.5089858119497568
  0.6559616221132278  0.5386758648267443  0.4222836297922820
  0.3953632284287471  0.5589946727921462  0.4001227376006393
  0.5243357202638750  0.5495629481976201  0.4122266664614664
  0.4446792987131676  0.5642360047469926  0.5226631209390042
  0.5813256825195935  0.5557696020334210  0.5306472113478919
  0.5096420047418814  0.5734980428549252  0.6371636304449348
  0.3672790201199314  0.4669023983686098  0.5664156669922308
 
  0.00000000E+00  0.00000000E+00  0.00000000E+00
  0.00000000E+00  0.00000000E+00  0.00000000E+00
  0.00000000E+00  0.00000000E+00  0.00000000E+00
  0.00000000E+00  0.00000000E+00  0.00000000E+00
  0.00000000E+00  0.00000000E+00  0.00000000E+00
  0.00000000E+00  0.00000000E+00  0.00000000E+00
  0.00000000E+00  0.00000000E+00  0.00000000E+00
  0.00000000E+00  0.00000000E+00  0.00000000E+00
  0.00000000E+00  0.00000000E+00  0.00000000E+00
  0.00000000E+00  0.00000000E+00  0.00000000E+00
  0.00000000E+00  0.00000000E+00  0.00000000E+00
