Pt11, -767.0 <s> Cu </s>
  1.00000000000000
    18.36884200000000     0.00000000000000     0.00000000000000
     0.00000000000000    18.36884200000000     0.00000000000000
     0.00000000000000     0.00000000000000    18.36884200000000
  Cu    
  11    
Direct
     0.44006945803150      0.44494355668176      0.45047461134606   
     0.50435898096085      0.45312428918112      0.58281835095286   
     0.57758635239938      0.43955905835198      0.46604626657632   
     0.50079684960499      0.35109346833230      0.50881520970594   
     0.64653451268348      0.53748366218347      0.42650199964897   
     0.39742732104310      0.55532453216307      0.40691789250580   
     0.52192803135995      0.54952781465200      0.41117105779789   
     0.44359006484111      0.57328689988907      0.52287253369421   
     0.58079321819293      0.55701652099179      0.53234786957975   
     0.50673520699602      0.56923153431726      0.63193881326696   
     0.38017999905784      0.46940865842732      0.56009539492522   
