Be7, -9.8477947 <s> Ag </s>             
   1.00000000000000     
    18.4377387472843317    0.0000000000000000    0.0000000000000000
     0.0000000000000000   18.4377387472843317    0.0000000000000000
     0.0000000000000000    0.0000000000000000   18.4377387472843317
   Ag
     7
Direct
  0.5162042041760303  0.6217576225430500  0.4983797381823588
  0.6217554711763671  0.6199045859578588  0.7590814564383801
  0.6925742992987153  0.5743441841622836  0.6396138108307315
  0.7208683498236382  0.7147872243042760  0.6658254397728360
  0.7720195162392024  0.6106068564877120  0.7624797763850760
  0.5813727133964527  0.6704646212149671  0.6199440255684819
  0.4320347001556374  0.6014682773373675  0.3872167717988624
 
  0.00000000E+00  0.00000000E+00  0.00000000E+00
  0.00000000E+00  0.00000000E+00  0.00000000E+00
  0.00000000E+00  0.00000000E+00  0.00000000E+00
  0.00000000E+00  0.00000000E+00  0.00000000E+00
  0.00000000E+00  0.00000000E+00  0.00000000E+00
  0.00000000E+00  0.00000000E+00  0.00000000E+00
  0.00000000E+00  0.00000000E+00  0.00000000E+00
