Pt13, -57.12237862 <s> Ag </s>          
   1.00000000000000     
    19.2498526503149208    0.0000000000000000    0.0000000000000000
     0.0000000000000000   19.2498526503149208    0.0000000000000000
     0.0000000000000000    0.0000000000000000   19.2498526503149208
   Ag
    13
Direct
  0.4472905942830252  0.5316592222812844  0.5765754684740116
  0.5982243431687237  0.5657162833963696  0.5703137526317832
  0.3612975087588950  0.6512541765842315  0.5608343353658825
  0.5438871031425165  0.4686711868129834  0.6586147436328389
  0.4987855396210747  0.6637957223397990  0.5252759401456828
  0.6312368249191280  0.6623257385958752  0.4688378952733387
  0.6856559859970801  0.5179413296991697  0.4639642149199688
  0.5466861748726544  0.5494297477473893  0.4349589522144228
  0.4042799352157331  0.5721205110361538  0.4490305605581142
  0.5884841083827865  0.4277434299781504  0.5195160788528739
  0.4586684496381466  0.4383865909911577  0.4500629263546685
  0.4553646102880151  0.3836304343759736  0.5834538416354107
  0.5186165451331206  0.3090361476671362  0.4796993599904837
 
  0.00000000E+00  0.00000000E+00  0.00000000E+00
  0.00000000E+00  0.00000000E+00  0.00000000E+00
  0.00000000E+00  0.00000000E+00  0.00000000E+00
  0.00000000E+00  0.00000000E+00  0.00000000E+00
  0.00000000E+00  0.00000000E+00  0.00000000E+00
  0.00000000E+00  0.00000000E+00  0.00000000E+00
  0.00000000E+00  0.00000000E+00  0.00000000E+00
  0.00000000E+00  0.00000000E+00  0.00000000E+00
  0.00000000E+00  0.00000000E+00  0.00000000E+00
  0.00000000E+00  0.00000000E+00  0.00000000E+00
  0.00000000E+00  0.00000000E+00  0.00000000E+00
  0.00000000E+00  0.00000000E+00  0.00000000E+00
  0.00000000E+00  0.00000000E+00  0.00000000E+00
