Be11, -16.15035557 <s> Ni </s>          
   1.00000000000000     
    18.5905172588113707    0.0000000000000000    0.0000000000000000
     0.0000000000000000   18.5905172588113707    0.0000000000000000
     0.0000000000000000    0.0000000000000000   18.5905172588113707
   Ni
    11
Direct
  0.5936317422731885  0.4166543156590249  0.5798258662549388
  0.4374545541469944  0.5484312295659444  0.5247729748776718
  0.6513110656135878  0.5256207032185397  0.6151067547269069
  0.5006950304217822  0.6585582443361766  0.5316903295566173
  0.6632951260391547  0.4784722157901830  0.4972829163758988
  0.5093406420281951  0.5880573151125582  0.4286835331821259
  0.4489485717882071  0.6083895441000127  0.6345063951206428
  0.5974489120515682  0.5808844333071105  0.5179024736916771
  0.5364305225254552  0.4776719334131844  0.4864216842190519
  0.5749700389828719  0.6295228049742830  0.6312773869591035
  0.5256635874775227  0.5157222143744046  0.6079434695425172
 
  0.00000000E+00  0.00000000E+00  0.00000000E+00
  0.00000000E+00  0.00000000E+00  0.00000000E+00
  0.00000000E+00  0.00000000E+00  0.00000000E+00
  0.00000000E+00  0.00000000E+00  0.00000000E+00
  0.00000000E+00  0.00000000E+00  0.00000000E+00
  0.00000000E+00  0.00000000E+00  0.00000000E+00
  0.00000000E+00  0.00000000E+00  0.00000000E+00
  0.00000000E+00  0.00000000E+00  0.00000000E+00
  0.00000000E+00  0.00000000E+00  0.00000000E+00
  0.00000000E+00  0.00000000E+00  0.00000000E+00
  0.00000000E+00  0.00000000E+00  0.00000000E+00
