Al10, -26.43943848 <s> Ag </s>          
   1.00000000000000     
    19.1130358712615696    0.0000000000000000    0.0000000000000000
     0.0000000000000000   19.1130358712615696    0.0000000000000000
     0.0000000000000000    0.0000000000000000   19.1130358712615696
   Ag
    10
Direct
  0.3494680100403424  0.4771777145010475  0.4607612642790021
  0.4787310747488879  0.4154472287176306  0.4987349826812753
  0.4256528710647344  0.5373829868189568  0.5692553858996392
  0.6610927218733310  0.4030864165489985  0.5542532428025861
  0.5494644717256051  0.4819273815307245  0.6069450329897047
  0.6740158936747327  0.5436318105318433  0.5624556331561892
  0.5454374649109691  0.6069049055037784  0.5243712385132653
  0.4725666365895500  0.5410824391343730  0.4165124531102760
  0.5972595170792462  0.4864968747933677  0.4523352775990055
  0.3581593395743510  0.6180076611013667  0.4664238397340496
 
  0.00000000E+00  0.00000000E+00  0.00000000E+00
  0.00000000E+00  0.00000000E+00  0.00000000E+00
  0.00000000E+00  0.00000000E+00  0.00000000E+00
  0.00000000E+00  0.00000000E+00  0.00000000E+00
  0.00000000E+00  0.00000000E+00  0.00000000E+00
  0.00000000E+00  0.00000000E+00  0.00000000E+00
  0.00000000E+00  0.00000000E+00  0.00000000E+00
  0.00000000E+00  0.00000000E+00  0.00000000E+00
  0.00000000E+00  0.00000000E+00  0.00000000E+00
  0.00000000E+00  0.00000000E+00  0.00000000E+00
