Pd12, -1536.353518 <s> Cu </s>
  1.00000000000000
    16.70185506000000     0.00000000000000     0.00000000000000
     0.00000000000000    16.70185506000000     0.00000000000000
     0.00000000000000     0.00000000000000    16.70185506000000
  Cu    
  12    
Direct
     0.60161395901508      0.50000000000000      0.60161395901508   
     0.60161395901508      0.60161395901508      0.50000000000000   
     0.50000000000000      0.60161395901508      0.39838604098492   
     0.39838604098492      0.50000000000000      0.39838604098492   
     0.50000000000000      0.39838604098492      0.60161395901508   
     0.39838604098492      0.39838604098492      0.50000000000000   
     0.39838604098492      0.60161395901508      0.50000000000000   
     0.50000000000000      0.60161395901508      0.60161395901508   
     0.39838604098492      0.50000000000000      0.60161395901508   
     0.50000000000000      0.39838604098492      0.39838604098492   
     0.60161395901508      0.39838604098492      0.50000000000000   
     0.60161395901508      0.50000000000000      0.39838604098492   
