Ag12, -915.0 <s> Pd </s>                
   1.00000000000000     
    20.1148190000000007    0.0000000000000000    0.0000000000000000
     0.0000000000000000   20.1148190000000007    0.0000000000000000
     0.0000000000000000    0.0000000000000000   20.1148190000000007
   Pd
    12
Direct
  0.4303442562177991  0.5631043367482912  0.5517469559652278
  0.5696557437822012  0.5631043367482912  0.5517469559652278
  0.5000000000000000  0.5628732849475543  0.4411041666477252
  0.6280502832238675  0.5000000000000000  0.4531574807533836
  0.5696557437822012  0.4368956632517090  0.5517469559652278
  0.4303442562177991  0.4368956632517090  0.5517469559652278
  0.5000000000000000  0.4371267150524457  0.4411041666477252
  0.5000000000000000  0.5629169837375622  0.6608021398051629
  0.4363311667949857  0.5000000000000000  0.3414423032904011
  0.3719497167761320  0.5000000000000000  0.4531574807533836
  0.5636688332050143  0.5000000000000000  0.3414423032904011
  0.5000000000000000  0.4370830162624376  0.6608021398051629
 
  0.00000000E+00  0.00000000E+00  0.00000000E+00
  0.00000000E+00  0.00000000E+00  0.00000000E+00
  0.00000000E+00  0.00000000E+00  0.00000000E+00
  0.00000000E+00  0.00000000E+00  0.00000000E+00
  0.00000000E+00  0.00000000E+00  0.00000000E+00
  0.00000000E+00  0.00000000E+00  0.00000000E+00
  0.00000000E+00  0.00000000E+00  0.00000000E+00
  0.00000000E+00  0.00000000E+00  0.00000000E+00
  0.00000000E+00  0.00000000E+00  0.00000000E+00
  0.00000000E+00  0.00000000E+00  0.00000000E+00
  0.00000000E+00  0.00000000E+00  0.00000000E+00
  0.00000000E+00  0.00000000E+00  0.00000000E+00
