Pt33, -155.18323939 <s> Ag </s>         
   1.00000000000000     
    24.0183392302630487    0.0000000000000000    0.0000000000000000
     0.0000000000000000   24.0183392302630487    0.0000000000000000
     0.0000000000000000    0.0000000000000000   24.0183392302630487
   Ag
    33
Direct
  0.5192326874469169  0.4062599749480280  0.3198291100743109
  0.5279811193343542  0.5114715832450462  0.6610718077056122
  0.3901955865391303  0.5347575403778404  0.5698350439783323
  0.4587746144851246  0.3442339999053778  0.5253030987876830
  0.6895809263284328  0.5230039523678804  0.5522560296584982
  0.6794639877579265  0.5148068601439151  0.4366709704542580
  0.4118695763637457  0.4492394512550749  0.4930432893863004
  0.4686213282595477  0.3787881159817786  0.4155502791831933
  0.6523892333193823  0.6161429739307521  0.4896632440725678
  0.6479338801961344  0.4189980945189398  0.4980756868545580
  0.5675009078558938  0.5652216227794307  0.4277502983252082
  0.4746654748282479  0.5468320965452541  0.4942863564879816
  0.3683753044624316  0.6368229127994458  0.6253302508680694
  0.5922867784308115  0.4496043559749370  0.3968542383280877
  0.3834886725072855  0.7383724769261321  0.5636020862398162
  0.6579628385711309  0.6068016402162369  0.3710691006061220
  0.6062851394659675  0.4469500610636957  0.6004169632708217
  0.4865255089366726  0.4910052252677651  0.3952824052304242
  0.2981304866405884  0.7235553254891757  0.6350882743171135
  0.4697885471350753  0.7376909542383008  0.4859329105778837
  0.4135037190419520  0.6416095930210081  0.5131908564444074
  0.5085505806578962  0.2579242428805489  0.5752696565409857
  0.5786978356591809  0.5539439747611594  0.5614352760535716
  0.4170692984608970  0.5503018768352878  0.6848389955306748
  0.5840663872479579  0.6855440652458560  0.4181652574990847
  0.6974263135986022  0.4067898018762169  0.3958409942528609
  0.4800950121967177  0.6021933510821192  0.6030147631265055
  0.5317557941059556  0.4475040431086960  0.5049641657936765
  0.6427410117972527  0.5356933058850278  0.6587166520835001
  0.5351545163535769  0.6482508537022620  0.5110075311457546
  0.4745625447588440  0.4875447253516385  0.7573481668935149
  0.3672982125023643  0.3452382893645066  0.4570838752436525
  0.5698354126258696  0.3487118967824979  0.5540216028568534
 
  0.00000000E+00  0.00000000E+00  0.00000000E+00
  0.00000000E+00  0.00000000E+00  0.00000000E+00
  0.00000000E+00  0.00000000E+00  0.00000000E+00
  0.00000000E+00  0.00000000E+00  0.00000000E+00
  0.00000000E+00  0.00000000E+00  0.00000000E+00
  0.00000000E+00  0.00000000E+00  0.00000000E+00
  0.00000000E+00  0.00000000E+00  0.00000000E+00
  0.00000000E+00  0.00000000E+00  0.00000000E+00
  0.00000000E+00  0.00000000E+00  0.00000000E+00
  0.00000000E+00  0.00000000E+00  0.00000000E+00
  0.00000000E+00  0.00000000E+00  0.00000000E+00
  0.00000000E+00  0.00000000E+00  0.00000000E+00
  0.00000000E+00  0.00000000E+00  0.00000000E+00
  0.00000000E+00  0.00000000E+00  0.00000000E+00
  0.00000000E+00  0.00000000E+00  0.00000000E+00
  0.00000000E+00  0.00000000E+00  0.00000000E+00
  0.00000000E+00  0.00000000E+00  0.00000000E+00
  0.00000000E+00  0.00000000E+00  0.00000000E+00
  0.00000000E+00  0.00000000E+00  0.00000000E+00
  0.00000000E+00  0.00000000E+00  0.00000000E+00
  0.00000000E+00  0.00000000E+00  0.00000000E+00
  0.00000000E+00  0.00000000E+00  0.00000000E+00
  0.00000000E+00  0.00000000E+00  0.00000000E+00
  0.00000000E+00  0.00000000E+00  0.00000000E+00
  0.00000000E+00  0.00000000E+00  0.00000000E+00
  0.00000000E+00  0.00000000E+00  0.00000000E+00
  0.00000000E+00  0.00000000E+00  0.00000000E+00
  0.00000000E+00  0.00000000E+00  0.00000000E+00
  0.00000000E+00  0.00000000E+00  0.00000000E+00
  0.00000000E+00  0.00000000E+00  0.00000000E+00
  0.00000000E+00  0.00000000E+00  0.00000000E+00
  0.00000000E+00  0.00000000E+00  0.00000000E+00
  0.00000000E+00  0.00000000E+00  0.00000000E+00
