Ag12, -927.0 <s> Pd </s>                
   1.00000000000000     
    20.5893079999999991    0.0000000000000000    0.0000000000000000
     0.0000000000000000   20.5893079999999991    0.0000000000000000
     0.0000000000000000    0.0000000000000000   20.5893079999999991
   Pd
    12
Direct
  0.5000000000000000  0.6722891045173115  0.4144572817128999
  0.5624916548177797  0.4371568244090741  0.4327183164984006
  0.5624916548177797  0.5628431755909259  0.4327183164984006
  0.5619759853361149  0.5000000000000000  0.5469850532394686
  0.5000000000000000  0.6211492652179486  0.5305664829375311
  0.4375083451822203  0.5628431755909259  0.4327183164984006
  0.4375083451822203  0.4371568244090741  0.4327183164984006
  0.4380240146638852  0.5000000000000000  0.5469850532394686
  0.5000000000000000  0.3277108954826887  0.4144572817128999
  0.5000000000000000  0.4374973555974765  0.6425545467421113
  0.5000000000000000  0.3788507347820513  0.5305664829375311
  0.5000000000000000  0.5625026444025234  0.6425545467421113
 
  0.00000000E+00  0.00000000E+00  0.00000000E+00
  0.00000000E+00  0.00000000E+00  0.00000000E+00
  0.00000000E+00  0.00000000E+00  0.00000000E+00
  0.00000000E+00  0.00000000E+00  0.00000000E+00
  0.00000000E+00  0.00000000E+00  0.00000000E+00
  0.00000000E+00  0.00000000E+00  0.00000000E+00
  0.00000000E+00  0.00000000E+00  0.00000000E+00
  0.00000000E+00  0.00000000E+00  0.00000000E+00
  0.00000000E+00  0.00000000E+00  0.00000000E+00
  0.00000000E+00  0.00000000E+00  0.00000000E+00
  0.00000000E+00  0.00000000E+00  0.00000000E+00
  0.00000000E+00  0.00000000E+00  0.00000000E+00
