Ag13, -901.0 <s> Cu </s>
  1.00000000000000
    19.92320800000000     0.00000000000000     0.00000000000000
     0.00000000000000    19.92320800000000     0.00000000000000
     0.00000000000000     0.00000000000000    19.92320800000000
  Cu    
  13    
Direct
     0.49542794692663      0.38105409298815      0.61371008535458   
     0.57522752547716      0.58169658791801      0.50000000000000   
     0.55240785934510      0.47925397755817      0.56285340857403   
     0.55240785934510      0.47925397755817      0.43714659142597   
     0.49542794692663      0.38105409298815      0.38628991464542   
     0.44454815665848      0.43206499101259      0.50000000000000   
     0.44694710028217      0.55263177125611      0.50000000000000   
     0.44416700299101      0.49235056991158      0.38263146105037   
     0.44416700299101      0.49235056991158      0.61736853894963   
     0.50782566270932      0.59636117650610      0.39590600099288   
     0.48713331294624      0.66931710528001      0.50000000000000   
     0.54648695427467      0.36624990418809      0.50000000000000   
     0.50782566270932      0.59636117650610      0.60409399900712   
