Pt29, -137.30334427 <s> Ag </s>         
   1.00000000000000     
    21.0577892873253099    0.0000000000000000    0.0000000000000000
     0.0000000000000000   21.0577892873253099    0.0000000000000000
     0.0000000000000000    0.0000000000000000   21.0577892873253099
   Ag
    29
Direct
  0.7106587907484889  0.5166883362602827  0.3967650630958102
  0.6606422511787982  0.4548575699631257  0.5129022554786035
  0.6500891800708346  0.5414950201760016  0.6180078493934312
  0.6320995063996563  0.3293596759950870  0.5483983224265430
  0.5942802125961310  0.6583270828691976  0.5822030605498992
  0.6556953187217518  0.5891318098228612  0.4910412350277563
  0.5818682562196248  0.4954790852982000  0.4142085496306855
  0.6215672381890308  0.6124852299346666  0.3650742127885464
  0.5978646441143942  0.7128695706444318  0.4591467671818005
  0.5550866878832575  0.2995788706411777  0.6483098549438957
  0.5792450577412483  0.4259924648955629  0.6196768841190651
  0.5821240225707656  0.7881650246490718  0.5661064313954015
  0.5383123079290957  0.5338827192661626  0.5481693060632404
  0.5249055219040047  0.6966618447830984  0.3463731053343539
  0.4806750712172486  0.7100434659934904  0.5369892808046707
  0.4720805623156588  0.4909448987839103  0.6560180711378905
  0.5350875400741490  0.3999640715809153  0.4920965925995840
  0.4883855707276614  0.4112520158586667  0.3654298544448281
  0.4562586762752125  0.3703873266952875  0.6000575877065637
  0.4991888697265391  0.5515317575420401  0.3298479154251108
  0.5096917208146303  0.6159498925144862  0.4464276441525026
  0.4808257857402925  0.6245986360167408  0.6435426927389002
  0.4127273350512836  0.5934599069672294  0.5352359519234940
  0.4078022005460633  0.3723982065694647  0.4669273765785041
  0.3598258149711195  0.5570455637899735  0.6533234998141050
  0.3705170439469092  0.4691173686370960  0.5519948380848693
  0.4445314506518084  0.5004088369214139  0.4472898198011933
  0.3566094454341718  0.4241230014603423  0.6761830742253866
  0.3312124065147337  0.3436592357445771  0.5721113934079237
 
  0.00000000E+00  0.00000000E+00  0.00000000E+00
  0.00000000E+00  0.00000000E+00  0.00000000E+00
  0.00000000E+00  0.00000000E+00  0.00000000E+00
  0.00000000E+00  0.00000000E+00  0.00000000E+00
  0.00000000E+00  0.00000000E+00  0.00000000E+00
  0.00000000E+00  0.00000000E+00  0.00000000E+00
  0.00000000E+00  0.00000000E+00  0.00000000E+00
  0.00000000E+00  0.00000000E+00  0.00000000E+00
  0.00000000E+00  0.00000000E+00  0.00000000E+00
  0.00000000E+00  0.00000000E+00  0.00000000E+00
  0.00000000E+00  0.00000000E+00  0.00000000E+00
  0.00000000E+00  0.00000000E+00  0.00000000E+00
  0.00000000E+00  0.00000000E+00  0.00000000E+00
  0.00000000E+00  0.00000000E+00  0.00000000E+00
  0.00000000E+00  0.00000000E+00  0.00000000E+00
  0.00000000E+00  0.00000000E+00  0.00000000E+00
  0.00000000E+00  0.00000000E+00  0.00000000E+00
  0.00000000E+00  0.00000000E+00  0.00000000E+00
  0.00000000E+00  0.00000000E+00  0.00000000E+00
  0.00000000E+00  0.00000000E+00  0.00000000E+00
  0.00000000E+00  0.00000000E+00  0.00000000E+00
  0.00000000E+00  0.00000000E+00  0.00000000E+00
  0.00000000E+00  0.00000000E+00  0.00000000E+00
  0.00000000E+00  0.00000000E+00  0.00000000E+00
  0.00000000E+00  0.00000000E+00  0.00000000E+00
  0.00000000E+00  0.00000000E+00  0.00000000E+00
  0.00000000E+00  0.00000000E+00  0.00000000E+00
  0.00000000E+00  0.00000000E+00  0.00000000E+00
  0.00000000E+00  0.00000000E+00  0.00000000E+00
