Al39, -122.8475673 <s> Ag </s>          
   1.00000000000000     
    23.4643565518245509    0.0000000000000000    0.0000000000000000
     0.0000000000000000   23.4643565518245509    0.0000000000000000
     0.0000000000000000    0.0000000000000000   23.4643565518245509
   Ag
    39
Direct
  0.5127033917478073  0.3479837285088040  0.6207746527433341
  0.4687100822473305  0.3321247193898865  0.5007466444567089
  0.5874635398053170  0.3394845658773541  0.5310035615358091
  0.3660902726049363  0.3957125306468802  0.4840731313439494
  0.4632087993154090  0.4155874603837136  0.4100214097398259
  0.5799500450879796  0.4025994467215362  0.4339591901818450
  0.6756978889009937  0.4161516709928534  0.5106013435434804
  0.6036708265207748  0.4280475415229615  0.6089210629921947
  0.3653631080794072  0.4912218501200490  0.4075496493174159
  0.5934648890188972  0.5108310549620790  0.4955046824368987
  0.4102021148344795  0.3957167207645305  0.5989183732403982
  0.2771916649378679  0.4894903220161054  0.4856835978322678
  0.3936055166196034  0.5005748490061911  0.5315447580019566
  0.5632782633336012  0.4983636485436535  0.3695968833797725
  0.5028074498786016  0.4378769335395161  0.5295573749933464
  0.6745699314802495  0.4822498048838014  0.4085950673418958
  0.3034991660845292  0.4403624137636373  0.5902400010711086
  0.7640290354047932  0.4970336350138769  0.4872229774822011
  0.4530872741160316  0.5071252040391425  0.3294139769547611
  0.2977537352472399  0.5585678918477214  0.5819792667853746
  0.4759276449835131  0.5315346035472888  0.4478938915164095
  0.4975699820074315  0.4612276386680483  0.6586828564814804
  0.7548606159565053  0.5667271710966553  0.3862740254831764
  0.3889004586451333  0.5094015254785927  0.6501310868295108
  0.6848704374220212  0.5123109350807273  0.5796568821743804
  0.6372483410441815  0.5930443705824272  0.3726027729850524
  0.5040511853187636  0.5516866613153951  0.5630365456874999
  0.3994554029503106  0.6041677493542327  0.3751403123593311
  0.5179223575993201  0.6108135540234438  0.3663181338846101
  0.3426348496349061  0.5947223099038175  0.4766688008001315
  0.4804637496428235  0.5823054386379581  0.6746762817273103
  0.6870960479217492  0.5876027111413031  0.4804373530299902
  0.4518889579014254  0.6496723867545912  0.4738544936593608
  0.4038038658263843  0.6164985953693599  0.5821281788478828
  0.5923889133076427  0.5339368663758225  0.6585090395436075
  0.5703964064282988  0.6306596910663258  0.4696780815580974
  0.5129848999512544  0.6699673645871259  0.5753932049725228
  0.6201837799614617  0.6134834523773475  0.5744850407304030
  0.5784621697378109  0.6516671079109119  0.6766521668110645
 
  0.00000000E+00  0.00000000E+00  0.00000000E+00
  0.00000000E+00  0.00000000E+00  0.00000000E+00
  0.00000000E+00  0.00000000E+00  0.00000000E+00
  0.00000000E+00  0.00000000E+00  0.00000000E+00
  0.00000000E+00  0.00000000E+00  0.00000000E+00
  0.00000000E+00  0.00000000E+00  0.00000000E+00
  0.00000000E+00  0.00000000E+00  0.00000000E+00
  0.00000000E+00  0.00000000E+00  0.00000000E+00
  0.00000000E+00  0.00000000E+00  0.00000000E+00
  0.00000000E+00  0.00000000E+00  0.00000000E+00
  0.00000000E+00  0.00000000E+00  0.00000000E+00
  0.00000000E+00  0.00000000E+00  0.00000000E+00
  0.00000000E+00  0.00000000E+00  0.00000000E+00
  0.00000000E+00  0.00000000E+00  0.00000000E+00
  0.00000000E+00  0.00000000E+00  0.00000000E+00
  0.00000000E+00  0.00000000E+00  0.00000000E+00
  0.00000000E+00  0.00000000E+00  0.00000000E+00
  0.00000000E+00  0.00000000E+00  0.00000000E+00
  0.00000000E+00  0.00000000E+00  0.00000000E+00
  0.00000000E+00  0.00000000E+00  0.00000000E+00
  0.00000000E+00  0.00000000E+00  0.00000000E+00
  0.00000000E+00  0.00000000E+00  0.00000000E+00
  0.00000000E+00  0.00000000E+00  0.00000000E+00
  0.00000000E+00  0.00000000E+00  0.00000000E+00
  0.00000000E+00  0.00000000E+00  0.00000000E+00
  0.00000000E+00  0.00000000E+00  0.00000000E+00
  0.00000000E+00  0.00000000E+00  0.00000000E+00
  0.00000000E+00  0.00000000E+00  0.00000000E+00
  0.00000000E+00  0.00000000E+00  0.00000000E+00
  0.00000000E+00  0.00000000E+00  0.00000000E+00
  0.00000000E+00  0.00000000E+00  0.00000000E+00
  0.00000000E+00  0.00000000E+00  0.00000000E+00
  0.00000000E+00  0.00000000E+00  0.00000000E+00
  0.00000000E+00  0.00000000E+00  0.00000000E+00
  0.00000000E+00  0.00000000E+00  0.00000000E+00
  0.00000000E+00  0.00000000E+00  0.00000000E+00
  0.00000000E+00  0.00000000E+00  0.00000000E+00
  0.00000000E+00  0.00000000E+00  0.00000000E+00
  0.00000000E+00  0.00000000E+00  0.00000000E+00
