Pt13, -57.78773142 <s> Pd </s>          
   1.00000000000000     
    18.7991743906074191    0.0000000000000000    0.0000000000000000
     0.0000000000000000   18.7991743906074191    0.0000000000000000
     0.0000000000000000    0.0000000000000000   18.7991743906074191
   Pd
    13
Direct
  0.6465070616760852  0.5145416797783287  0.6094776128734423
  0.6184361933257612  0.5560056167575880  0.4815769493499459
  0.5814944401273977  0.4222394111049512  0.5329982409126726
  0.5827788050530630  0.5764586355834654  0.3504928034407345
  0.5155291763049288  0.5419617355106759  0.5809354636286006
  0.5496224108443285  0.4537473965022001  0.3998415338880157
  0.4943666054838772  0.3410881620465059  0.4602911865223859
  0.4813958490375712  0.5750610586163566  0.4425636307186497
  0.4425548525760445  0.4163283806784079  0.5655144296373057
  0.4136593941683606  0.5052418782777020  0.6647081553665822
  0.4104172364193395  0.4489167919622239  0.4326469629486176
  0.3782696094581232  0.5467971032321436  0.5386123062617414
  0.3497554357255495  0.5681892737223797  0.4059880865248808
 
  0.00000000E+00  0.00000000E+00  0.00000000E+00
  0.00000000E+00  0.00000000E+00  0.00000000E+00
  0.00000000E+00  0.00000000E+00  0.00000000E+00
  0.00000000E+00  0.00000000E+00  0.00000000E+00
  0.00000000E+00  0.00000000E+00  0.00000000E+00
  0.00000000E+00  0.00000000E+00  0.00000000E+00
  0.00000000E+00  0.00000000E+00  0.00000000E+00
  0.00000000E+00  0.00000000E+00  0.00000000E+00
  0.00000000E+00  0.00000000E+00  0.00000000E+00
  0.00000000E+00  0.00000000E+00  0.00000000E+00
  0.00000000E+00  0.00000000E+00  0.00000000E+00
  0.00000000E+00  0.00000000E+00  0.00000000E+00
  0.00000000E+00  0.00000000E+00  0.00000000E+00
