Pt45, -228.79371484 <s> Ag </s>         
   1.00000000000000     
    22.4336825914366713    0.0000000000000000    0.0000000000000000
     0.0000000000000000   22.4336825914366713    0.0000000000000000
     0.0000000000000000    0.0000000000000000   22.4336825914366713
   Ag
    45
Direct
  0.4789245508512093  0.5354042544608100  0.3480478850228326
  0.4377930707558414  0.4793054295950661  0.5415143445759444
  0.5420964425373354  0.5239617122629233  0.7341303508318207
  0.3891041337363003  0.4854150367993474  0.4230459621459902
  0.7063058557732078  0.5652532157013822  0.3726354944475065
  0.7218113576899851  0.6197694031635976  0.4859912059899289
  0.4224888092963144  0.6937777973935818  0.4587224753191436
  0.5211877788267503  0.5451692588213607  0.6082620889400358
  0.5344904696908666  0.3302116672015378  0.4797898821892528
  0.6776775496430180  0.4428094323847181  0.3724580136289182
  0.4907539942539594  0.5698175074494076  0.4740005994381045
  0.3808481719837967  0.6020428926669321  0.3855051881595323
  0.3706767682225037  0.5897330023822714  0.5113063146687238
  0.5940207251694152  0.5297926888200896  0.4178560576857070
  0.5942158804340656  0.5873150813389538  0.3092115163601429
  0.6048968989086352  0.3312114240006228  0.5829621371630646
  0.7033374340734242  0.5551021192218391  0.5959789801735917
  0.5432313477000100  0.7034705824009063  0.4874215307029668
  0.4906746162761135  0.6321696875691837  0.6922277774720940
  0.5696531253767919  0.4322740557425115  0.6510508469289442
  0.5890910279242479  0.3527120448023612  0.3710558307749610
  0.6798236585783094  0.4328229311204488  0.5905710744247935
  0.5045284035485100  0.4363518775959409  0.4210355539707897
  0.3574473581975122  0.4001104306208434  0.5965220224931929
  0.3265613260633083  0.4790726776375657  0.6918696203407706
  0.3009743442185440  0.4220446736655011  0.4859040797547831
  0.6620951888329621  0.4973376946628849  0.6990680057308720
  0.2970705491625266  0.5094755971372319  0.5725162119110563
  0.5071637656821716  0.6540666674829932  0.3755638969748654
  0.2799516893347671  0.5420573133234926  0.4454605072091992
  0.4629330412587553  0.6504332075682221  0.5693670275632392
  0.6280352300151388  0.6560882827526684  0.4100495965347587
  0.5645618984825969  0.7022742713590102  0.6123257313519985
  0.6161254092733008  0.6081379235566187  0.6709485319386509
  0.3930274020267708  0.5663172476365255  0.6329469814094235
  0.4178319106946151  0.5426356127355622  0.7537784307166763
  0.6971072264975782  0.4975613988580562  0.4845387276580818
  0.6036165220017728  0.5998209271087780  0.5298975379519184
  0.6520319738864994  0.3789218353579274  0.4770282624431635
  0.4840875887964765  0.3704358708227262  0.5857497543109963
  0.4141284600825776  0.3715458372202532  0.4804447485601352
  0.5725173072828239  0.4682246576809337  0.5263028540397097
  0.5712018495496859  0.4621744503812113  0.3123901452562602
  0.4475686477315874  0.4553655261981255  0.6709013797667329
  0.6845643202666943  0.6782398739263654  0.5898799156579964
 
  0.00000000E+00  0.00000000E+00  0.00000000E+00
  0.00000000E+00  0.00000000E+00  0.00000000E+00
  0.00000000E+00  0.00000000E+00  0.00000000E+00
  0.00000000E+00  0.00000000E+00  0.00000000E+00
  0.00000000E+00  0.00000000E+00  0.00000000E+00
  0.00000000E+00  0.00000000E+00  0.00000000E+00
  0.00000000E+00  0.00000000E+00  0.00000000E+00
  0.00000000E+00  0.00000000E+00  0.00000000E+00
  0.00000000E+00  0.00000000E+00  0.00000000E+00
  0.00000000E+00  0.00000000E+00  0.00000000E+00
  0.00000000E+00  0.00000000E+00  0.00000000E+00
  0.00000000E+00  0.00000000E+00  0.00000000E+00
  0.00000000E+00  0.00000000E+00  0.00000000E+00
  0.00000000E+00  0.00000000E+00  0.00000000E+00
  0.00000000E+00  0.00000000E+00  0.00000000E+00
  0.00000000E+00  0.00000000E+00  0.00000000E+00
  0.00000000E+00  0.00000000E+00  0.00000000E+00
  0.00000000E+00  0.00000000E+00  0.00000000E+00
  0.00000000E+00  0.00000000E+00  0.00000000E+00
  0.00000000E+00  0.00000000E+00  0.00000000E+00
  0.00000000E+00  0.00000000E+00  0.00000000E+00
  0.00000000E+00  0.00000000E+00  0.00000000E+00
  0.00000000E+00  0.00000000E+00  0.00000000E+00
  0.00000000E+00  0.00000000E+00  0.00000000E+00
  0.00000000E+00  0.00000000E+00  0.00000000E+00
  0.00000000E+00  0.00000000E+00  0.00000000E+00
  0.00000000E+00  0.00000000E+00  0.00000000E+00
  0.00000000E+00  0.00000000E+00  0.00000000E+00
  0.00000000E+00  0.00000000E+00  0.00000000E+00
  0.00000000E+00  0.00000000E+00  0.00000000E+00
  0.00000000E+00  0.00000000E+00  0.00000000E+00
  0.00000000E+00  0.00000000E+00  0.00000000E+00
  0.00000000E+00  0.00000000E+00  0.00000000E+00
  0.00000000E+00  0.00000000E+00  0.00000000E+00
  0.00000000E+00  0.00000000E+00  0.00000000E+00
  0.00000000E+00  0.00000000E+00  0.00000000E+00
  0.00000000E+00  0.00000000E+00  0.00000000E+00
  0.00000000E+00  0.00000000E+00  0.00000000E+00
  0.00000000E+00  0.00000000E+00  0.00000000E+00
  0.00000000E+00  0.00000000E+00  0.00000000E+00
  0.00000000E+00  0.00000000E+00  0.00000000E+00
  0.00000000E+00  0.00000000E+00  0.00000000E+00
  0.00000000E+00  0.00000000E+00  0.00000000E+00
  0.00000000E+00  0.00000000E+00  0.00000000E+00
  0.00000000E+00  0.00000000E+00  0.00000000E+00
