Al11, -29.5922656 <s> Ag </s>           
   1.00000000000000     
    17.9461485045525500    0.0000000000000000    0.0000000000000000
     0.0000000000000000   17.9461485045525500    0.0000000000000000
     0.0000000000000000    0.0000000000000000   17.9461485045525500
   Ag
    11
Direct
  0.6286509824081400  0.3950866638286923  0.5163034532778054
  0.6621716536382576  0.5403252218785751  0.5557108719002840
  0.4851025527373848  0.3594223856966428  0.4741324145709820
  0.5233523865244032  0.4804747024177483  0.5910126484734270
  0.5478106978681132  0.4955597326310052  0.4305930485468195
  0.4103280222357507  0.4407585260443972  0.3681763987260109
  0.5734041198120875  0.6188080165968364  0.6533992102945222
  0.4280818741672665  0.6009254554767655  0.5868961689085381
  0.5522346259564794  0.6362658676837231  0.5011429946662572
  0.4256787154627140  0.5884984636223559  0.4274065567995080
  0.3841710263380657  0.4702507923806813  0.5177471514469082
 
  0.00000000E+00  0.00000000E+00  0.00000000E+00
  0.00000000E+00  0.00000000E+00  0.00000000E+00
  0.00000000E+00  0.00000000E+00  0.00000000E+00
  0.00000000E+00  0.00000000E+00  0.00000000E+00
  0.00000000E+00  0.00000000E+00  0.00000000E+00
  0.00000000E+00  0.00000000E+00  0.00000000E+00
  0.00000000E+00  0.00000000E+00  0.00000000E+00
  0.00000000E+00  0.00000000E+00  0.00000000E+00
  0.00000000E+00  0.00000000E+00  0.00000000E+00
  0.00000000E+00  0.00000000E+00  0.00000000E+00
  0.00000000E+00  0.00000000E+00  0.00000000E+00
