Ag14, -852.0 <s> Ag </s>                
   1.00000000000000     
    17.2769639999999995    0.0000000000000000    0.0000000000000000
     0.0000000000000000   17.2769639999999995    0.0000000000000000
     0.0000000000000000    0.0000000000000000   17.2769639999999995
   Ag
    14
Direct
  0.5000000000000000  0.5000000000000000  0.6209562508447193
  0.5000000000000000  0.6209562508447193  0.5000000000000000
  0.3790437491552807  0.5000000000000000  0.5000000000000000
  0.5000000000000000  0.5000000000000000  0.3790437491552807
  0.6209562508447193  0.5000000000000000  0.5000000000000000
  0.5000000000000000  0.3790437491552807  0.5000000000000000
  0.3872210943659987  0.3872210943659987  0.6127789056340013
  0.6127789056340013  0.6127789056340013  0.3872210943659987
  0.6127789056340013  0.3872210943659987  0.3872210943659987
  0.6127789056340013  0.6127789056340013  0.6127789056340013
  0.3872210943659987  0.6127789056340013  0.6127789056340013
  0.3872210943659987  0.6127789056340013  0.3872210943659987
  0.3872210943659987  0.3872210943659987  0.3872210943659987
  0.6127789056340013  0.3872210943659987  0.6127789056340013
 
  0.00000000E+00  0.00000000E+00  0.00000000E+00
  0.00000000E+00  0.00000000E+00  0.00000000E+00
  0.00000000E+00  0.00000000E+00  0.00000000E+00
  0.00000000E+00  0.00000000E+00  0.00000000E+00
  0.00000000E+00  0.00000000E+00  0.00000000E+00
  0.00000000E+00  0.00000000E+00  0.00000000E+00
  0.00000000E+00  0.00000000E+00  0.00000000E+00
  0.00000000E+00  0.00000000E+00  0.00000000E+00
  0.00000000E+00  0.00000000E+00  0.00000000E+00
  0.00000000E+00  0.00000000E+00  0.00000000E+00
  0.00000000E+00  0.00000000E+00  0.00000000E+00
  0.00000000E+00  0.00000000E+00  0.00000000E+00
  0.00000000E+00  0.00000000E+00  0.00000000E+00
  0.00000000E+00  0.00000000E+00  0.00000000E+00
