Pt9, -36.84044725 <s> Ag </s>
  1.00000000000000
    20.20055192381925     0.00000000000000     0.00000000000000
     0.00000000000000    20.20055192381925     0.00000000000000
     0.00000000000000     0.00000000000000    20.20055192381925
  Ag    
  9     
Direct
     0.45157284849174      0.64377508380880      0.54992201346248   
     0.47759958549289      0.60299926748766      0.42798185711968   
     0.50201377767475      0.53693163567211      0.31963188051189   
     0.54870037670851      0.60431563190523      0.63045135004860   
     0.51812583878379      0.53246875997739      0.53019681052242   
     0.49099337155786      0.46592308857496      0.42510615068410   
     0.58750402103286      0.50015704386317      0.69208613495793   
     0.55885768603874      0.43076975234715      0.58969036701066   
     0.51579652068888      0.36191792455686      0.49270047372025   
