Al54, -1 <s> Ag </s>                    
   1.00000000000000     
    23.9341240000000006    0.0000000000000000    0.0000000000000000
     0.0000000000000000   23.9341240000000006    0.0000000000000000
     0.0000000000000000    0.0000000000000000   23.9341240000000006
   Ag
    54
Direct
  0.6430399782367119  0.4202111371023302  0.5163402543469383
  0.5701983638165838  0.5061391765650707  0.4576934051374695
  0.5590356794578359  0.4913562681580813  0.7006147108366988
  0.3074875667033427  0.5345858590321384  0.4306541246082954
  0.6153559003724774  0.5834190424739997  0.6528291893336802
  0.6312591290577095  0.4143397805585016  0.6354456111547593
  0.5022632451061579  0.5833504283240776  0.5228051667508550
  0.5122488437315318  0.4038313934692075  0.6321400784796379
  0.4384801806046044  0.6658913537889322  0.5955426511403623
  0.6937179491823129  0.5150412245446436  0.4694064726179223
  0.3481092986991445  0.4495939729185570  0.6200631600682963
  0.4097589098684845  0.3674344557859184  0.5570504718839893
  0.3857415608827187  0.5810162151232303  0.5131325586521434
  0.5133649649839768  0.5448180425543153  0.3554951553003989
  0.6826643236683535  0.6280749432489742  0.4365923044692633
  0.3535602789594653  0.4444941520996355  0.3760733068414225
  0.5207798019833689  0.4202950554971143  0.3862856768245080
  0.3905009693133313  0.5536577808639677  0.3457383771035540
  0.5639461482259256  0.4975181106019996  0.5798263860071702
  0.6357950487317449  0.5457389835952577  0.3662689469069450
  0.4462186567757755  0.4643152402044940  0.3008640302926431
  0.4456854771915038  0.4980421714367279  0.4434099036924075
  0.3829277909412351  0.5656025633993795  0.6359272653721647
  0.2914631934563501  0.5335272868963363  0.5576249787981554
  0.5915904438480105  0.3380213188794566  0.4483778053639118
  0.6204845180890690  0.5913102640600619  0.5330101970164973
  0.6871028528152963  0.5070952543439006  0.5885543887642002
  0.5558586503870752  0.6678031173782156  0.5993643317470959
  0.3459505754613032  0.4471369331049731  0.4977812805183423
  0.6154650905257305  0.7034027073614570  0.5021073069617654
  0.3225838010617004  0.6539396792619624  0.5935528862008348
  0.5666147402228654  0.6268387945991784  0.4262002599504635
  0.7338169487463418  0.6027271931054337  0.5396957303893436
  0.4968240798268861  0.5825931115466365  0.6570647559301398
  0.3378634086591984  0.6443698245368257  0.3947488897175331
  0.5857570993458864  0.4634006327096304  0.3007979742202235
  0.4437231125266934  0.4818074447917901  0.6882540503099751
  0.4993132555605507  0.7006316104522158  0.4996721059664442
  0.5824780411864382  0.3324085301018087  0.5666357530344591
  0.4176211543135413  0.3701374864830936  0.4403425574494941
  0.6506090813675515  0.4326641289676778  0.3980093115158281
  0.4500894808276845  0.6238312276204591  0.4193806611513476
  0.3823562207239554  0.6964872868421993  0.4950284028821363
  0.4437140319670250  0.4886542844705252  0.5653449591957074
  0.5136230701523568  0.4125759723305122  0.5059776058631125
  0.6066226647678856  0.3471129778438741  0.3330282802808401
  0.4102028268698997  0.3672951997633161  0.6753030748473956
  0.4080895741662112  0.3555287107216304  0.3258432077819793
  0.5006742101606722  0.3048913450808320  0.3784118941443431
  0.4786418051854772  0.2926756492210861  0.6120965019310866
  0.4912766853374813  0.2959868911815668  0.4963102556194394
  0.5111339914797549  0.3729789398882945  0.2745991645289659
  0.2785484945265269  0.6300080195507010  0.4908575393958907
  0.6754975031352626  0.4980392639928996  0.7047387637644266
 
  0.00000000E+00  0.00000000E+00  0.00000000E+00
  0.00000000E+00  0.00000000E+00  0.00000000E+00
  0.00000000E+00  0.00000000E+00  0.00000000E+00
  0.00000000E+00  0.00000000E+00  0.00000000E+00
  0.00000000E+00  0.00000000E+00  0.00000000E+00
  0.00000000E+00  0.00000000E+00  0.00000000E+00
  0.00000000E+00  0.00000000E+00  0.00000000E+00
  0.00000000E+00  0.00000000E+00  0.00000000E+00
  0.00000000E+00  0.00000000E+00  0.00000000E+00
  0.00000000E+00  0.00000000E+00  0.00000000E+00
  0.00000000E+00  0.00000000E+00  0.00000000E+00
  0.00000000E+00  0.00000000E+00  0.00000000E+00
  0.00000000E+00  0.00000000E+00  0.00000000E+00
  0.00000000E+00  0.00000000E+00  0.00000000E+00
  0.00000000E+00  0.00000000E+00  0.00000000E+00
  0.00000000E+00  0.00000000E+00  0.00000000E+00
  0.00000000E+00  0.00000000E+00  0.00000000E+00
  0.00000000E+00  0.00000000E+00  0.00000000E+00
  0.00000000E+00  0.00000000E+00  0.00000000E+00
  0.00000000E+00  0.00000000E+00  0.00000000E+00
  0.00000000E+00  0.00000000E+00  0.00000000E+00
  0.00000000E+00  0.00000000E+00  0.00000000E+00
  0.00000000E+00  0.00000000E+00  0.00000000E+00
  0.00000000E+00  0.00000000E+00  0.00000000E+00
  0.00000000E+00  0.00000000E+00  0.00000000E+00
  0.00000000E+00  0.00000000E+00  0.00000000E+00
  0.00000000E+00  0.00000000E+00  0.00000000E+00
  0.00000000E+00  0.00000000E+00  0.00000000E+00
  0.00000000E+00  0.00000000E+00  0.00000000E+00
  0.00000000E+00  0.00000000E+00  0.00000000E+00
  0.00000000E+00  0.00000000E+00  0.00000000E+00
  0.00000000E+00  0.00000000E+00  0.00000000E+00
  0.00000000E+00  0.00000000E+00  0.00000000E+00
  0.00000000E+00  0.00000000E+00  0.00000000E+00
  0.00000000E+00  0.00000000E+00  0.00000000E+00
  0.00000000E+00  0.00000000E+00  0.00000000E+00
  0.00000000E+00  0.00000000E+00  0.00000000E+00
  0.00000000E+00  0.00000000E+00  0.00000000E+00
  0.00000000E+00  0.00000000E+00  0.00000000E+00
  0.00000000E+00  0.00000000E+00  0.00000000E+00
  0.00000000E+00  0.00000000E+00  0.00000000E+00
  0.00000000E+00  0.00000000E+00  0.00000000E+00
  0.00000000E+00  0.00000000E+00  0.00000000E+00
  0.00000000E+00  0.00000000E+00  0.00000000E+00
  0.00000000E+00  0.00000000E+00  0.00000000E+00
  0.00000000E+00  0.00000000E+00  0.00000000E+00
  0.00000000E+00  0.00000000E+00  0.00000000E+00
  0.00000000E+00  0.00000000E+00  0.00000000E+00
  0.00000000E+00  0.00000000E+00  0.00000000E+00
  0.00000000E+00  0.00000000E+00  0.00000000E+00
  0.00000000E+00  0.00000000E+00  0.00000000E+00
  0.00000000E+00  0.00000000E+00  0.00000000E+00
  0.00000000E+00  0.00000000E+00  0.00000000E+00
  0.00000000E+00  0.00000000E+00  0.00000000E+00
