Ti13, -78.70042666 <s> Ni </s>          
   1.00000000000000     
    19.1218981652184716    0.0000000000000000    0.0000000000000000
     0.0000000000000000   19.1218981652184716    0.0000000000000000
     0.0000000000000000    0.0000000000000000   19.1218981652184716
   Ni
    13
Direct
  0.5912968493002435  0.4791405185858192  0.4462318928041459
  0.5028663530961414  0.5287306769299743  0.3337770634226040
  0.5460008992643365  0.3846334072388435  0.3377253270423168
  0.4731470621727569  0.5773329655393850  0.4792641236949265
  0.5521845922864485  0.3411896589193352  0.5001820459036660
  0.3920978437321210  0.4326231656737832  0.2924388413786450
  0.4275505371059378  0.3548582339551999  0.5874412778358060
  0.4423290007626245  0.4269272453321076  0.4376986990434403
  0.2812253945724817  0.4341702266494324  0.4002142687219253
  0.3620098423065725  0.5533447113915771  0.3795152245377748
  0.5160127919539552  0.4686420711912213  0.5753245428101567
  0.3259559000714216  0.3372673768462706  0.4914958033343972
  0.3498055128669744  0.4854983677591399  0.5361251727038866
 
  0.00000000E+00  0.00000000E+00  0.00000000E+00
  0.00000000E+00  0.00000000E+00  0.00000000E+00
  0.00000000E+00  0.00000000E+00  0.00000000E+00
  0.00000000E+00  0.00000000E+00  0.00000000E+00
  0.00000000E+00  0.00000000E+00  0.00000000E+00
  0.00000000E+00  0.00000000E+00  0.00000000E+00
  0.00000000E+00  0.00000000E+00  0.00000000E+00
  0.00000000E+00  0.00000000E+00  0.00000000E+00
  0.00000000E+00  0.00000000E+00  0.00000000E+00
  0.00000000E+00  0.00000000E+00  0.00000000E+00
  0.00000000E+00  0.00000000E+00  0.00000000E+00
  0.00000000E+00  0.00000000E+00  0.00000000E+00
  0.00000000E+00  0.00000000E+00  0.00000000E+00
