Rh10, -740.0 <s> Ni </s>                
   1.00000000000000     
    17.4962459999999993    0.0000000000000000    0.0000000000000000
     0.0000000000000000   17.4962459999999993    0.0000000000000000
     0.0000000000000000    0.0000000000000000   17.4962459999999993
   Ni
    10
Direct
  0.4205885549011367  0.3806926530052128  0.4233183201326576
  0.5794321112285645  0.3806988455102220  0.4233178314831992
  0.4117516801971975  0.5370166618614574  0.4150149030505906
  0.5882884750629922  0.5370722567466160  0.4149468443079473
  0.4999841028233457  0.6645340417063578  0.4245119892532574
  0.4205692601981948  0.3806936278237345  0.5766767144659030
  0.5794111625597469  0.3806843492157862  0.5766758241914877
  0.4117103389956731  0.5370674930774821  0.5850510138494472
  0.5882473082159063  0.5370083829072214  0.5849833691487534
  0.5000170103759281  0.6645316790285666  0.5755031809993989
 
  0.00000000E+00  0.00000000E+00  0.00000000E+00
  0.00000000E+00  0.00000000E+00  0.00000000E+00
  0.00000000E+00  0.00000000E+00  0.00000000E+00
  0.00000000E+00  0.00000000E+00  0.00000000E+00
  0.00000000E+00  0.00000000E+00  0.00000000E+00
  0.00000000E+00  0.00000000E+00  0.00000000E+00
  0.00000000E+00  0.00000000E+00  0.00000000E+00
  0.00000000E+00  0.00000000E+00  0.00000000E+00
  0.00000000E+00  0.00000000E+00  0.00000000E+00
  0.00000000E+00  0.00000000E+00  0.00000000E+00
