Pt31, -147.66287854 <s> Ag </s>         
   1.00000000000000     
    23.9712136216492091    0.0000000000000000    0.0000000000000000
     0.0000000000000000   23.9712136216492091    0.0000000000000000
     0.0000000000000000    0.0000000000000000   23.9712136216492091
   Ag
    31
Direct
  0.4791064228139922  0.3193543787273759  0.7077156906476497
  0.4594786345983404  0.4308652792835072  0.7160939144711410
  0.5565357742841968  0.3888424921086083  0.6550548917616150
  0.5398954547658300  0.5069085753369279  0.6774277364616668
  0.6364172161494973  0.3949518843603091  0.5671198121675263
  0.5039084214969854  0.5812568212572662  0.5900725087224891
  0.4367463550121474  0.5456610278637034  0.7169126345496007
  0.4489012418750519  0.3748537692808824  0.6104951415051416
  0.5479169734639378  0.4681238431007463  0.5708374747600469
  0.5320748456182518  0.3558689644946103  0.5329822279946290
  0.6244891988950029  0.3470119030230623  0.4615284802900947
  0.6161706898841939  0.5590806068938227  0.5461798761436414
  0.3945907104925720  0.6031893247774039  0.6234096761645112
  0.4314762023564601  0.4903844742415969  0.6160364381786059
  0.6223881940715310  0.4654089877723078  0.4695487318233777
  0.4473852673161652  0.4376511875665348  0.5110078574657340
  0.4311859890488740  0.6607490107229235  0.5289141049393619
  0.5201333515910718  0.5311675521820214  0.4784056877448020
  0.4060808069019602  0.5470446837122145  0.5173768595590489
  0.5226063665349782  0.4093944923243597  0.4275788535168809
  0.6178993102349206  0.5777269917110003  0.4287717722843521
  0.6230031867338172  0.4087126557438207  0.3650124663550749
  0.5461130686918351  0.6462853501958687  0.5033871899325104
  0.5549685775904429  0.5017826881049853  0.3663576269357754
  0.4374640263147269  0.5011566974946963  0.4079401923985021
  0.5092436266791264  0.6063919446687704  0.3860060062911563
  0.6636960003138485  0.6566594059837786  0.4980819973143465
  0.4001707533802640  0.6149691350041501  0.4239537154596751
  0.4713948752586570  0.7080265730990749  0.4310412927189958
  0.5307764837628987  0.7730679082690878  0.3608446508635128
  0.5917622194001303  0.6914316362263210  0.4078847361102311
 
  0.00000000E+00  0.00000000E+00  0.00000000E+00
  0.00000000E+00  0.00000000E+00  0.00000000E+00
  0.00000000E+00  0.00000000E+00  0.00000000E+00
  0.00000000E+00  0.00000000E+00  0.00000000E+00
  0.00000000E+00  0.00000000E+00  0.00000000E+00
  0.00000000E+00  0.00000000E+00  0.00000000E+00
  0.00000000E+00  0.00000000E+00  0.00000000E+00
  0.00000000E+00  0.00000000E+00  0.00000000E+00
  0.00000000E+00  0.00000000E+00  0.00000000E+00
  0.00000000E+00  0.00000000E+00  0.00000000E+00
  0.00000000E+00  0.00000000E+00  0.00000000E+00
  0.00000000E+00  0.00000000E+00  0.00000000E+00
  0.00000000E+00  0.00000000E+00  0.00000000E+00
  0.00000000E+00  0.00000000E+00  0.00000000E+00
  0.00000000E+00  0.00000000E+00  0.00000000E+00
  0.00000000E+00  0.00000000E+00  0.00000000E+00
  0.00000000E+00  0.00000000E+00  0.00000000E+00
  0.00000000E+00  0.00000000E+00  0.00000000E+00
  0.00000000E+00  0.00000000E+00  0.00000000E+00
  0.00000000E+00  0.00000000E+00  0.00000000E+00
  0.00000000E+00  0.00000000E+00  0.00000000E+00
  0.00000000E+00  0.00000000E+00  0.00000000E+00
  0.00000000E+00  0.00000000E+00  0.00000000E+00
  0.00000000E+00  0.00000000E+00  0.00000000E+00
  0.00000000E+00  0.00000000E+00  0.00000000E+00
  0.00000000E+00  0.00000000E+00  0.00000000E+00
  0.00000000E+00  0.00000000E+00  0.00000000E+00
  0.00000000E+00  0.00000000E+00  0.00000000E+00
  0.00000000E+00  0.00000000E+00  0.00000000E+00
  0.00000000E+00  0.00000000E+00  0.00000000E+00
  0.00000000E+00  0.00000000E+00  0.00000000E+00
