Ni11, -991.0 <s> Pd </s>                
   1.00000000000000     
    17.1729300000000009    0.0000000000000000    0.0000000000000000
     0.0000000000000000   17.1729300000000009    0.0000000000000000
     0.0000000000000000    0.0000000000000000   17.1729300000000009
   Pd
    11
Direct
  0.5082137010928583  0.6697067590632421  0.5517460275918509
  0.3874291899346797  0.5735839478422531  0.5351654964958691
  0.6444587020760366  0.5849033215701789  0.5635903359041026
  0.4409397252427420  0.4278158731440554  0.5341281011261322
  0.5943102608416054  0.4320449816272091  0.5532925079974247
  0.5151091465943091  0.5370489763179013  0.4604474441910361
  0.4945488981661917  0.5306382825298972  0.6332223911955175
  0.5797758527071919  0.6451320177128905  0.6861428548341839
  0.6315739541020090  0.4988886942791047  0.6882818560992858
  0.6078916133707560  0.6527347204332006  0.4320679770479282
  0.6622855507988912  0.5086169457803611  0.4343412156482298
 
  0.00000000E+00  0.00000000E+00  0.00000000E+00
  0.00000000E+00  0.00000000E+00  0.00000000E+00
  0.00000000E+00  0.00000000E+00  0.00000000E+00
  0.00000000E+00  0.00000000E+00  0.00000000E+00
  0.00000000E+00  0.00000000E+00  0.00000000E+00
  0.00000000E+00  0.00000000E+00  0.00000000E+00
  0.00000000E+00  0.00000000E+00  0.00000000E+00
  0.00000000E+00  0.00000000E+00  0.00000000E+00
  0.00000000E+00  0.00000000E+00  0.00000000E+00
  0.00000000E+00  0.00000000E+00  0.00000000E+00
  0.00000000E+00  0.00000000E+00  0.00000000E+00
