Al11, -29.62695812 <s> Pd </s>          
   1.00000000000000     
    18.3143269921612983    0.0000000000000000    0.0000000000000000
     0.0000000000000000   18.3143269921612983    0.0000000000000000
     0.0000000000000000    0.0000000000000000   18.3143269921612983
   Pd
    11
Direct
  0.5773712522031069  0.5970152387320683  0.5881509961086679
  0.5449076819847292  0.5845343634411457  0.3614001964362007
  0.5709922648985251  0.4572853650215287  0.6107415868064373
  0.5147637439129367  0.5246171922258067  0.4852668538224252
  0.5524439217067062  0.3827466216937157  0.4871984627228709
  0.4150084020006238  0.5286371214194656  0.3674286873369192
  0.5357752298302072  0.4430808395063351  0.3573177504076403
  0.4496382155758493  0.5447535849584700  0.6223276520880354
  0.3702566551114070  0.5145716661939596  0.5044009085525007
  0.4182563072656614  0.3983838468963032  0.4308095086505238
  0.4398207969194430  0.4078417735366421  0.5736014986275553
 
  0.00000000E+00  0.00000000E+00  0.00000000E+00
  0.00000000E+00  0.00000000E+00  0.00000000E+00
  0.00000000E+00  0.00000000E+00  0.00000000E+00
  0.00000000E+00  0.00000000E+00  0.00000000E+00
  0.00000000E+00  0.00000000E+00  0.00000000E+00
  0.00000000E+00  0.00000000E+00  0.00000000E+00
  0.00000000E+00  0.00000000E+00  0.00000000E+00
  0.00000000E+00  0.00000000E+00  0.00000000E+00
  0.00000000E+00  0.00000000E+00  0.00000000E+00
  0.00000000E+00  0.00000000E+00  0.00000000E+00
  0.00000000E+00  0.00000000E+00  0.00000000E+00
