Pt36, -172.01940634 <s> Ag </s>         
   1.00000000000000     
    25.5802313885766992    0.0000000000000000    0.0000000000000000
     0.0000000000000000   25.5802313885766992    0.0000000000000000
     0.0000000000000000    0.0000000000000000   25.5802313885766992
   Ag
    36
Direct
  0.5023535944154225  0.5767514015530100  0.4127738271186465
  0.4073696013745918  0.4226816653710049  0.3817987552650429
  0.3444810238202827  0.5494956205356890  0.4962354366277054
  0.5951021486029400  0.6287259798132602  0.4404973332960750
  0.4594725171919206  0.4201520569890269  0.5490590933241728
  0.4786207137119326  0.5366330658394377  0.5272916675156615
  0.5156139345722121  0.6148875946433244  0.6030208712638188
  0.4995621209284112  0.4838000730041213  0.3496437083024835
  0.3801436401663132  0.4476377166286783  0.4852475153525371
  0.6014935114252581  0.6458846651379595  0.6597681180520331
  0.6781515741316447  0.4960218892309783  0.4309204117645916
  0.3118501647199182  0.4825001452720540  0.4105081562091111
  0.6638466980765986  0.4769951904345467  0.5383944078883615
  0.5480632677044919  0.5322199828310196  0.6700512812923960
  0.5052999941338254  0.6443451784142564  0.5008680734722247
  0.3894158730543769  0.4989552255166825  0.5845948816913970
  0.4070926239335638  0.5289805176329450  0.4020449070710806
  0.5030811473489342  0.3717071977551893  0.3929386483171122
  0.4106982657672257  0.6110464288616576  0.5651976211150296
  0.6058372827493161  0.6559944635376239  0.5475517224554006
  0.5792803252811640  0.5258237898098658  0.4825143287505446
  0.4878957634080658  0.4596807682417910  0.4524278688735904
  0.6316764629499705  0.3793818827309225  0.5721109000959116
  0.6173805257767615  0.5595566713517488  0.5921563551560167
  0.6756282532509963  0.5820695874923125  0.5004407021090923
  0.5306762896880711  0.3679275494873547  0.6091322959675411
  0.5529735712429956  0.3826124282449802  0.4964388588816348
  0.5885578769771310  0.4373895186467575  0.4026679802000271
  0.4712465624945544  0.4547295000689009  0.6504017182800262
  0.5100972913690960  0.6258533033862753  0.7145567416584037
  0.6619298243562352  0.3930547177039179  0.4687694409640625
  0.4409835081762925  0.5593171874895786  0.6597507837067059
  0.5703397746935526  0.7085619059492121  0.7406930514158908
  0.5974785732553420  0.5413585315755176  0.3712439587764459
  0.4112605883375446  0.6234388966389287  0.4541365901150552
  0.5589359578202626  0.4677185490866432  0.5780428345613704
 
  0.00000000E+00  0.00000000E+00  0.00000000E+00
  0.00000000E+00  0.00000000E+00  0.00000000E+00
  0.00000000E+00  0.00000000E+00  0.00000000E+00
  0.00000000E+00  0.00000000E+00  0.00000000E+00
  0.00000000E+00  0.00000000E+00  0.00000000E+00
  0.00000000E+00  0.00000000E+00  0.00000000E+00
  0.00000000E+00  0.00000000E+00  0.00000000E+00
  0.00000000E+00  0.00000000E+00  0.00000000E+00
  0.00000000E+00  0.00000000E+00  0.00000000E+00
  0.00000000E+00  0.00000000E+00  0.00000000E+00
  0.00000000E+00  0.00000000E+00  0.00000000E+00
  0.00000000E+00  0.00000000E+00  0.00000000E+00
  0.00000000E+00  0.00000000E+00  0.00000000E+00
  0.00000000E+00  0.00000000E+00  0.00000000E+00
  0.00000000E+00  0.00000000E+00  0.00000000E+00
  0.00000000E+00  0.00000000E+00  0.00000000E+00
  0.00000000E+00  0.00000000E+00  0.00000000E+00
  0.00000000E+00  0.00000000E+00  0.00000000E+00
  0.00000000E+00  0.00000000E+00  0.00000000E+00
  0.00000000E+00  0.00000000E+00  0.00000000E+00
  0.00000000E+00  0.00000000E+00  0.00000000E+00
  0.00000000E+00  0.00000000E+00  0.00000000E+00
  0.00000000E+00  0.00000000E+00  0.00000000E+00
  0.00000000E+00  0.00000000E+00  0.00000000E+00
  0.00000000E+00  0.00000000E+00  0.00000000E+00
  0.00000000E+00  0.00000000E+00  0.00000000E+00
  0.00000000E+00  0.00000000E+00  0.00000000E+00
  0.00000000E+00  0.00000000E+00  0.00000000E+00
  0.00000000E+00  0.00000000E+00  0.00000000E+00
  0.00000000E+00  0.00000000E+00  0.00000000E+00
  0.00000000E+00  0.00000000E+00  0.00000000E+00
  0.00000000E+00  0.00000000E+00  0.00000000E+00
  0.00000000E+00  0.00000000E+00  0.00000000E+00
  0.00000000E+00  0.00000000E+00  0.00000000E+00
  0.00000000E+00  0.00000000E+00  0.00000000E+00
  0.00000000E+00  0.00000000E+00  0.00000000E+00
