Pt10, -41.8502462 <s> Pd </s>           
   1.00000000000000     
    18.3527224439910484    0.0000000000000000    0.0000000000000000
     0.0000000000000000   18.3527224439910484    0.0000000000000000
     0.0000000000000000    0.0000000000000000   18.3527224439910484
   Pd
    10
Direct
  0.5926769539134583  0.5672943794281478  0.5723506421195995
  0.4880314909027721  0.4720135346281157  0.5963089640479433
  0.5933396759589996  0.4612453710076631  0.4738107374154515
  0.5528722960031470  0.3540251423085296  0.5543719919500995
  0.4609704559662824  0.6102859636578520  0.6093314876361796
  0.5318317474241216  0.4082652911199232  0.3601877346124792
  0.3908701823090898  0.6420352665715923  0.4935020572522613
  0.4906281133380727  0.5535941842686175  0.4721100003175647
  0.4474273288633407  0.4057545177892947  0.4740802174667387
  0.4251444126146779  0.4984145154900247  0.3669731571872190
 
  0.00000000E+00  0.00000000E+00  0.00000000E+00
  0.00000000E+00  0.00000000E+00  0.00000000E+00
  0.00000000E+00  0.00000000E+00  0.00000000E+00
  0.00000000E+00  0.00000000E+00  0.00000000E+00
  0.00000000E+00  0.00000000E+00  0.00000000E+00
  0.00000000E+00  0.00000000E+00  0.00000000E+00
  0.00000000E+00  0.00000000E+00  0.00000000E+00
  0.00000000E+00  0.00000000E+00  0.00000000E+00
  0.00000000E+00  0.00000000E+00  0.00000000E+00
  0.00000000E+00  0.00000000E+00  0.00000000E+00
