Nb13, -821.0 <s> Ni </s>                
   1.00000000000000     
    18.8438629999999989    0.0000000000000000    0.0000000000000000
     0.0000000000000000   18.8438629999999989    0.0000000000000000
     0.0000000000000000    0.0000000000000000   18.8438629999999989
   Ni
    13
Direct
  0.4998981991509381  0.4998969040637227  0.5001166204088073
  0.5034914138936506  0.5648412420200710  0.6047826113126407
  0.5033987974514449  0.4375596079359391  0.6041539794453480
  0.4979367475123250  0.5627288024939980  0.3955642800175680
  0.4953649409190765  0.4336303614325809  0.3933751185818322
  0.5658581751161805  0.6021074102046708  0.4987674859699235
  0.5631329759393486  0.3960022842225318  0.4976228634580710
  0.4365214672446882  0.6045171227037054  0.5015039232466435
  0.4340574723374571  0.3983740336717161  0.5023628252908920
  0.6093062047762938  0.4995243321020653  0.5623681925128042
  0.6026604844278961  0.4978144297149964  0.4318512572366134
  0.3952430429694967  0.5021775407277188  0.5691796931586246
  0.3931300982018246  0.5008259287062766  0.4383511493602384
 
  0.00000000E+00  0.00000000E+00  0.00000000E+00
  0.00000000E+00  0.00000000E+00  0.00000000E+00
  0.00000000E+00  0.00000000E+00  0.00000000E+00
  0.00000000E+00  0.00000000E+00  0.00000000E+00
  0.00000000E+00  0.00000000E+00  0.00000000E+00
  0.00000000E+00  0.00000000E+00  0.00000000E+00
  0.00000000E+00  0.00000000E+00  0.00000000E+00
  0.00000000E+00  0.00000000E+00  0.00000000E+00
  0.00000000E+00  0.00000000E+00  0.00000000E+00
  0.00000000E+00  0.00000000E+00  0.00000000E+00
  0.00000000E+00  0.00000000E+00  0.00000000E+00
  0.00000000E+00  0.00000000E+00  0.00000000E+00
  0.00000000E+00  0.00000000E+00  0.00000000E+00
