Nb13, -821.0 <s> Ni </s>                
   1.00000000000000     
    18.8438629999999989    0.0000000000000000    0.0000000000000000
     0.0000000000000000   18.8438629999999989    0.0000000000000000
     0.0000000000000000    0.0000000000000000   18.8438629999999989
   Ni
    13
Direct
  0.5003820199486202  0.5004339854571411  0.5004959119022723
  0.4995488644334560  0.5845516569973290  0.6323955464392791
  0.5031343731557069  0.4261027674587805  0.6298008963011416
  0.4973942490119539  0.5740973835225981  0.3708615407534682
  0.4984196580332113  0.4165459174693443  0.3679196708806380
  0.5809043721841874  0.6252581122774442  0.5013257627183488
  0.5793294547091405  0.3704362766116257  0.4971525430384862
  0.4202347850793290  0.6293102208866768  0.5025128220754592
  0.4194085533488084  0.3751032377751131  0.4991368960800175
  0.6404964986874500  0.4954847064177649  0.5720195317143557
  0.6288064748755657  0.4969144770382025  0.4152072389372326
  0.3708801005759522  0.5030076169780763  0.5843623617993848
  0.3610606158972401  0.5027536411098970  0.4268092773599216
 
  0.00000000E+00  0.00000000E+00  0.00000000E+00
  0.00000000E+00  0.00000000E+00  0.00000000E+00
  0.00000000E+00  0.00000000E+00  0.00000000E+00
  0.00000000E+00  0.00000000E+00  0.00000000E+00
  0.00000000E+00  0.00000000E+00  0.00000000E+00
  0.00000000E+00  0.00000000E+00  0.00000000E+00
  0.00000000E+00  0.00000000E+00  0.00000000E+00
  0.00000000E+00  0.00000000E+00  0.00000000E+00
  0.00000000E+00  0.00000000E+00  0.00000000E+00
  0.00000000E+00  0.00000000E+00  0.00000000E+00
  0.00000000E+00  0.00000000E+00  0.00000000E+00
  0.00000000E+00  0.00000000E+00  0.00000000E+00
  0.00000000E+00  0.00000000E+00  0.00000000E+00
