Pt7, -27.40242953 <s> Ag </s>           
   1.00000000000000     
    18.2662634917518609    0.0000000000000000    0.0000000000000000
     0.0000000000000000   18.2662634917518609    0.0000000000000000
     0.0000000000000000    0.0000000000000000   18.2662634917518609
   Ag
     7
Direct
  0.6130060265778099  0.5068683578386397  0.4860510972404616
  0.6786730139640792  0.6393941756816167  0.4921800816035279
  0.5394473417620556  0.3775824735199701  0.4825178813189359
  0.3989823333120255  0.6170482964584501  0.5821780771189815
  0.5392848717437823  0.6275814861042573  0.5395797538566861
  0.4634706468394519  0.4960881900787906  0.5305415780152101
  0.3956102636156385  0.3634712892808625  0.5149907642276192
 
  0.00000000E+00  0.00000000E+00  0.00000000E+00
  0.00000000E+00  0.00000000E+00  0.00000000E+00
  0.00000000E+00  0.00000000E+00  0.00000000E+00
  0.00000000E+00  0.00000000E+00  0.00000000E+00
  0.00000000E+00  0.00000000E+00  0.00000000E+00
  0.00000000E+00  0.00000000E+00  0.00000000E+00
  0.00000000E+00  0.00000000E+00  0.00000000E+00
