Ag13, -882.0 <s> Pd </s>                
   1.00000000000000     
    22.2923499999999990    0.0000000000000000    0.0000000000000000
     0.0000000000000000   22.2923499999999990    0.0000000000000000
     0.0000000000000000    0.0000000000000000   22.2923499999999990
   Pd
    13
Direct
  0.4026170149120915  0.5618926274183385  0.5237430151829015
  0.5000000000000000  0.4401829351352985  0.4532003158825961
  0.4025869490594575  0.5000000000000000  0.4186022598785467
  0.5973829850879088  0.4381073725816617  0.5237430151829015
  0.5000000000000000  0.5598170648647017  0.4532003158825961
  0.5974130509405429  0.5000000000000000  0.4186022598785467
  0.5000000000000000  0.5000000000000000  0.5663893137225238
  0.5973829850879088  0.5618926274183385  0.5237430151829015
  0.5000000000000000  0.6163981769814003  0.5589853972760460
  0.5000000000000000  0.3836018230185998  0.5589853972760460
  0.4026170149120915  0.4381073725816617  0.5237430151829015
  0.3105324008390287  0.5000000000000000  0.4885313397357539
  0.6894675991609714  0.5000000000000000  0.4885313397357539
 
  0.00000000E+00  0.00000000E+00  0.00000000E+00
  0.00000000E+00  0.00000000E+00  0.00000000E+00
  0.00000000E+00  0.00000000E+00  0.00000000E+00
  0.00000000E+00  0.00000000E+00  0.00000000E+00
  0.00000000E+00  0.00000000E+00  0.00000000E+00
  0.00000000E+00  0.00000000E+00  0.00000000E+00
  0.00000000E+00  0.00000000E+00  0.00000000E+00
  0.00000000E+00  0.00000000E+00  0.00000000E+00
  0.00000000E+00  0.00000000E+00  0.00000000E+00
  0.00000000E+00  0.00000000E+00  0.00000000E+00
  0.00000000E+00  0.00000000E+00  0.00000000E+00
  0.00000000E+00  0.00000000E+00  0.00000000E+00
  0.00000000E+00  0.00000000E+00  0.00000000E+00
