Pd11, -1408.360111 <s> Pd </s>          
   1.00000000000000     
    18.9406400999999995    0.0000000000000000    0.0000000000000000
     0.0000000000000000   18.9406400999999995    0.0000000000000000
     0.0000000000000000    0.0000000000000000   18.9406400999999995
   Pd
    11
Direct
  0.5939999433462259  0.6044021931909754  0.5861352437206320
  0.4122969886324438  0.5264840904803915  0.4639059686163540
  0.5234814418144434  0.6141697643630207  0.4669782416302701
  0.6437792855619623  0.5357814597211200  0.4739247361873925
  0.6072890448941493  0.3996710059802487  0.4660960697132406
  0.4666640398670507  0.3900596380655274  0.4670986668366097
  0.5336224149013078  0.4920974408671474  0.3961287275111780
  0.5341436708183698  0.4841239670871341  0.5486219743552165
  0.4520279760507323  0.5870343015998906  0.5854464061596868
  0.4010333380329912  0.4496588154301450  0.5798610187410401
  0.3316618560803092  0.4165173232143994  0.4658029465283866
 
  0.00000000E+00  0.00000000E+00  0.00000000E+00
  0.00000000E+00  0.00000000E+00  0.00000000E+00
  0.00000000E+00  0.00000000E+00  0.00000000E+00
  0.00000000E+00  0.00000000E+00  0.00000000E+00
  0.00000000E+00  0.00000000E+00  0.00000000E+00
  0.00000000E+00  0.00000000E+00  0.00000000E+00
  0.00000000E+00  0.00000000E+00  0.00000000E+00
  0.00000000E+00  0.00000000E+00  0.00000000E+00
  0.00000000E+00  0.00000000E+00  0.00000000E+00
  0.00000000E+00  0.00000000E+00  0.00000000E+00
  0.00000000E+00  0.00000000E+00  0.00000000E+00
