Ag10, -17.76952834 <s> Ag </s>          
   1.00000000000000     
    18.3293826352735785    0.0000000000000000    0.0000000000000000
     0.0000000000000000   18.3293826352735785    0.0000000000000000
     0.0000000000000000    0.0000000000000000   18.3293826352735785
   Ag
    10
Direct
  0.4903525642544453  0.4484531711617474  0.4106694177465090
  0.3462113882852749  0.3483369239024788  0.5542431619987731
  0.5812614885774339  0.5713147649355025  0.3942926126218321
  0.4930452775315315  0.5685148930626748  0.5237196740291381
  0.4166336791684213  0.5842456293535494  0.3998983576815381
  0.3667789694149318  0.4835969407356362  0.5023146693690507
  0.6115676152668688  0.4623917485363706  0.4961046208603253
  0.6368448897626198  0.6147320560663495  0.5265097075550932
  0.4847506013663961  0.4059976344240614  0.5587933678007881
  0.5725535263720622  0.5124162378216366  0.6334544103369806
 
  0.00000000E+00  0.00000000E+00  0.00000000E+00
  0.00000000E+00  0.00000000E+00  0.00000000E+00
  0.00000000E+00  0.00000000E+00  0.00000000E+00
  0.00000000E+00  0.00000000E+00  0.00000000E+00
  0.00000000E+00  0.00000000E+00  0.00000000E+00
  0.00000000E+00  0.00000000E+00  0.00000000E+00
  0.00000000E+00  0.00000000E+00  0.00000000E+00
  0.00000000E+00  0.00000000E+00  0.00000000E+00
  0.00000000E+00  0.00000000E+00  0.00000000E+00
  0.00000000E+00  0.00000000E+00  0.00000000E+00
