Ag13, -880.0 <s> Ag </s>                
   1.00000000000000     
    18.7036699999999989    0.0000000000000000    0.0000000000000000
     0.0000000000000000   18.7036699999999989    0.0000000000000000
     0.0000000000000000    0.0000000000000000   18.7036699999999989
   Ag
    13
Direct
  0.3787219311918225  0.5749308563154206  0.5037450910494071
  0.5000000000000000  0.4254802512513173  0.4160224348943143
  0.3740159725935798  0.5000000000000000  0.3742928456094358
  0.6212780688081776  0.4250691436845795  0.5037450910494071
  0.5000000000000000  0.5745197487486826  0.4160224348943143
  0.6259840274064202  0.5000000000000000  0.3742928456094358
  0.5000000000000000  0.5000000000000000  0.5697122827407584
  0.6212780688081776  0.5749308563154206  0.5037450910494071
  0.5000000000000000  0.6513496257766269  0.5416515258518942
  0.5000000000000000  0.3486503742233731  0.5416515258518942
  0.3787219311918225  0.4250691436845795  0.5037450910494071
  0.3523832992440234  0.5000000000000000  0.6256868701751478
  0.6476167007559764  0.5000000000000000  0.6256868701751478
 
  0.00000000E+00  0.00000000E+00  0.00000000E+00
  0.00000000E+00  0.00000000E+00  0.00000000E+00
  0.00000000E+00  0.00000000E+00  0.00000000E+00
  0.00000000E+00  0.00000000E+00  0.00000000E+00
  0.00000000E+00  0.00000000E+00  0.00000000E+00
  0.00000000E+00  0.00000000E+00  0.00000000E+00
  0.00000000E+00  0.00000000E+00  0.00000000E+00
  0.00000000E+00  0.00000000E+00  0.00000000E+00
  0.00000000E+00  0.00000000E+00  0.00000000E+00
  0.00000000E+00  0.00000000E+00  0.00000000E+00
  0.00000000E+00  0.00000000E+00  0.00000000E+00
  0.00000000E+00  0.00000000E+00  0.00000000E+00
  0.00000000E+00  0.00000000E+00  0.00000000E+00
