Be13, -28.37267487 <s> Ni </s>          
   1.00000000000000     
    18.4766132776755789    0.0000000000000000    0.0000000000000000
     0.0000000000000000   18.4766132776755789    0.0000000000000000
     0.0000000000000000    0.0000000000000000   18.4766132776755789
   Ni
    13
Direct
  0.5273956710099369  0.5360923821383506  0.4535930179447611
  0.4979649958993780  0.4772641151316389  0.5885308002394778
  0.5770922478672047  0.5058519234115431  0.7129358726346153
  0.5910530125223086  0.6698775755281862  0.4309474675273979
  0.4240652354934635  0.4883216138840916  0.7275643814527017
  0.6282341587356408  0.5551787960842469  0.3337009361043807
  0.6541910725877116  0.4661915134933774  0.5688680724714399
  0.6068263266168050  0.6137115137461784  0.5879433371890352
  0.4740911562938156  0.6219706736504932  0.6834272339645333
  0.6302156477298370  0.4269500000074308  0.4186282932049357
  0.3620912117078218  0.5496710957640949  0.6009434302227643
  0.4635120081311324  0.6525472692099865  0.5396622280810937
  0.6997011496329576  0.5598752706159423  0.4647113724491670
 
  0.00000000E+00  0.00000000E+00  0.00000000E+00
  0.00000000E+00  0.00000000E+00  0.00000000E+00
  0.00000000E+00  0.00000000E+00  0.00000000E+00
  0.00000000E+00  0.00000000E+00  0.00000000E+00
  0.00000000E+00  0.00000000E+00  0.00000000E+00
  0.00000000E+00  0.00000000E+00  0.00000000E+00
  0.00000000E+00  0.00000000E+00  0.00000000E+00
  0.00000000E+00  0.00000000E+00  0.00000000E+00
  0.00000000E+00  0.00000000E+00  0.00000000E+00
  0.00000000E+00  0.00000000E+00  0.00000000E+00
  0.00000000E+00  0.00000000E+00  0.00000000E+00
  0.00000000E+00  0.00000000E+00  0.00000000E+00
  0.00000000E+00  0.00000000E+00  0.00000000E+00
