Ag10, -17.76368542 <s> Cu </s>
  1.00000000000000
    19.23040536692459     0.00000000000000     0.00000000000000
     0.00000000000000    19.23040536692459     0.00000000000000
     0.00000000000000     0.00000000000000    19.23040536692459
  Cu    
  10    
Direct
     0.48532650764164      0.39911041539472      0.37267761297395   
     0.43684667392114      0.51645967418500      0.37512183147928   
     0.36383619368443      0.42240059408035      0.40117705582628   
     0.55726984298511      0.49139800590068      0.42044559685047   
     0.51688900796062      0.60607243976564      0.42217548310441   
     0.42886317465553      0.32350722791763      0.45603537290186   
     0.30993002856318      0.33543916056585      0.47917398690769   
     0.45670185928271      0.52325180636760      0.49869574568143   
     0.50999828026841      0.40819969241424      0.50208116699957   
     0.38671958061362      0.42654213298469      0.52479729685149   
