Ag13, -882.0 <s> Ag </s>                
   1.00000000000000     
    22.2923499999999990    0.0000000000000000    0.0000000000000000
     0.0000000000000000   22.2923499999999990    0.0000000000000000
     0.0000000000000000    0.0000000000000000   22.2923499999999990
   Ag
    13
Direct
  0.3917509881718026  0.5747783943189089  0.5226977010667579
  0.5000000000000000  0.4358878882589297  0.4450455934268223
  0.3942128361833203  0.5000000000000000  0.4249959521879742
  0.6082490118281974  0.4252216056810911  0.5226977010667579
  0.5000000000000000  0.5641121117410702  0.4450455934268223
  0.6057871638166797  0.5000000000000000  0.4249959521879742
  0.5000000000000000  0.5000000000000000  0.5538457503231621
  0.6082490118281974  0.5747783943189089  0.5226977010667579
  0.5000000000000000  0.6241658895423233  0.5543709670429450
  0.5000000000000000  0.3758341104576768  0.5543709670429450
  0.3917509881718026  0.4252216056810911  0.5226977010667579
  0.2951403878665605  0.5000000000000000  0.5032692100471686
  0.7048596121334394  0.5000000000000000  0.5032692100471686
 
  0.00000000E+00  0.00000000E+00  0.00000000E+00
  0.00000000E+00  0.00000000E+00  0.00000000E+00
  0.00000000E+00  0.00000000E+00  0.00000000E+00
  0.00000000E+00  0.00000000E+00  0.00000000E+00
  0.00000000E+00  0.00000000E+00  0.00000000E+00
  0.00000000E+00  0.00000000E+00  0.00000000E+00
  0.00000000E+00  0.00000000E+00  0.00000000E+00
  0.00000000E+00  0.00000000E+00  0.00000000E+00
  0.00000000E+00  0.00000000E+00  0.00000000E+00
  0.00000000E+00  0.00000000E+00  0.00000000E+00
  0.00000000E+00  0.00000000E+00  0.00000000E+00
  0.00000000E+00  0.00000000E+00  0.00000000E+00
  0.00000000E+00  0.00000000E+00  0.00000000E+00
