Ag10, -17.7486789 <s> Ag </s>           
   1.00000000000000     
    19.4173110430328286    0.0000000000000000    0.0000000000000000
     0.0000000000000000   19.4173110430328286    0.0000000000000000
     0.0000000000000000    0.0000000000000000   19.4173110430328286
   Ag
    10
Direct
  0.5557449574545181  0.6061035645589343  0.3391666173915637
  0.5668013328062771  0.4728291312044568  0.3795204402065755
  0.4604494127999315  0.5566159213829925  0.4381131589754463
  0.5999624262940159  0.5872539908002068  0.4713264562953157
  0.4672691614080435  0.4145722831641283  0.4601181236012710
  0.5965801382842283  0.4508255376783055  0.5190729550360417
  0.3845383146536974  0.4997942330495026  0.5428141017218574
  0.5119279931934565  0.5579941422589340  0.5750907632018403
  0.4880952816670057  0.4180985513680037  0.6051331798865135
  0.3686309814387976  0.4359126445345283  0.6696442036835752
 
  0.00000000E+00  0.00000000E+00  0.00000000E+00
  0.00000000E+00  0.00000000E+00  0.00000000E+00
  0.00000000E+00  0.00000000E+00  0.00000000E+00
  0.00000000E+00  0.00000000E+00  0.00000000E+00
  0.00000000E+00  0.00000000E+00  0.00000000E+00
  0.00000000E+00  0.00000000E+00  0.00000000E+00
  0.00000000E+00  0.00000000E+00  0.00000000E+00
  0.00000000E+00  0.00000000E+00  0.00000000E+00
  0.00000000E+00  0.00000000E+00  0.00000000E+00
  0.00000000E+00  0.00000000E+00  0.00000000E+00
