Be11, -23.26610228 <s> Cu </s>
  1.00000000000000
    17.58718609879389     0.00000000000000     0.00000000000000
     0.00000000000000    17.58718609879389     0.00000000000000
     0.00000000000000     0.00000000000000    17.58718609879389
  Cu    
  11    
Direct
     0.44308322426463      0.53251517509584      0.38501672203030   
     0.56477892016898      0.50195185400888      0.42659255793073   
     0.48996265407868      0.56044983811292      0.51436121810553   
     0.63039435962927      0.58909179111623      0.50814392596706   
     0.53865088739289      0.68158536141858      0.53908348409220   
     0.59169686596614      0.46782355343911      0.55490143148502   
     0.69265186579573      0.53385338228805      0.61329487519834   
     0.48834712414209      0.60954170360631      0.64118911917666   
     0.47369443477197      0.47771603335214      0.61732802079494   
     0.62025789863350      0.64145177002036      0.63349769422346   
     0.58083249051286      0.51837026289832      0.68094167635249   
